*SPEF "1481-1998"
*DESIGN "control_pad"
*DATE "Fri Nov 28 20:09:07 2025"
*VENDOR "Synopsys, Inc."
*PROGRAM "icc_shell"
*VERSION "T-2022.03"
*DESIGN_FLOW "PIN_CAP NONE"
*DIVIDER /
*DELIMITER :
*BUS_DELIMITER [ ]
*T_UNIT 1 NS
*C_UNIT 1 FF
*R_UNIT 1 OHM
*L_UNIT 1 HENRY

*PORTS
rd O *L 63.66 *S 0.0 0.0
zero I *L 0.0 *S 0.0 0.0
clk I *L 0.0 *S 0.0 0.0
rst_ I *L 0.0 *S 0.0 0.0
opcode[2] I *L 0.0 *S 0.0 0.0
opcode[1] I *L 0.0 *S 0.0 0.0
opcode[0] I *L 0.0 *S 0.0 0.0
VDD I *L 0.0 *S 0.0 0.0
sel O *L 63.66 *S 0.0 0.0
data_e O *L 63.66 *S 0.0 0.0
halt O *L 63.66 *S 0.0 0.0
inc_pc O *L 63.66 *S 0.0 0.0
ld_pc O *L 63.66 *S 0.0 0.0
ld_ac O *L 63.66 *S 0.0 0.0
ld_ir O *L 63.66 *S 0.0 0.0
wr O *L 63.66 *S 0.0 0.0
VSS I *L 0.0 *S 0.0 0.0

*D_NET n18 0.6969514

*CONN
*I U37:Y O *L 0.0 *D NAND2BXL *C 326.59 246.885
*I i_control_state_reg_2_:D I *L 1.311 *C 324.29 247.295
*N n18:3 *C 326.59 246.885
*N n18:4 *C 326.59 246.885
*N n18:5 *C 324.29 246.885
*N n18:6 *C 324.29 246.885
*N n18:7 *C 324.29 247.295

*CAP
1 U37:Y 0.0
2 i_control_state_reg_2_:D 0.0
3 n18:3 0.06909135
4 n18:4 0.2351539
5 n18:5 0.1660626
6 n18:6 0.0728664
7 n18:7 0.0728664
8 n18:4 wr_pad:7 0.04045544
9 n18:5 wr_pad:7 0.04045544

*RES
1 n18:3 U37:Y 0.1
2 n18:4 n18:3 0.1
3 n18:5 n18:6 0.1
4 n18:7 i_control_state_reg_2_:D 0.1
5 n18:6 n18:7 0.06370001
6 n18:5 n18:4 0.23569

*END

*D_NET n7 5.331171

*CONN
*I U37:B I *L 1.892 *C 327.51 247.295
*I U32:Y O *L 0.0 *D INVXL *C 330.27 255.495
*I U16:B0 I *L 6.03 *C 324.29 240.325
*N n7:4 *C 327.51 247.295
*N n7:5 *C 327.51 247.295
*N n7:6 *C 327.51 247.295
*N n7:7 *C 324.29 240.325
*N n7:8 *C 324.29 239.915
*N n7:9 *C 324.29 239.915
*N n7:10 *C 327.51 239.915
*N n7:11 *C 327.51 239.915
*N n7:12 *C 327.51 255.495
*N n7:13 *C 327.51 255.495
*N n7:14 *C 330.27 255.495
*N n7:15 *C 330.27 255.495

*CAP
1 U37:B 0.0
2 U32:Y 0.1073384
3 U16:B0 0.0
4 n7:4 0.07475009
5 n7:5 0.1658339
6 n7:6 0.6822836
7 n7:7 0.0700995
8 n7:8 0.2533782
9 n7:9 0.0700995
10 n7:10 0.2339201
11 n7:11 0.2533782
12 n7:12 0.3572796
13 n7:13 0.3098988
14 n7:14 0.3098988
15 n7:15 0.1073384
16 n7:6 n20:14 0.1770254
17 n7:6 n20:7 0.6406184
18 n7:10 n20:10 0.463593
19 n7:11 n20:11 0.2569236
20 n7:8 n20:11 0.2569236
21 n7:12 n13:20 0.2702955
22 n7:6 n13:19 0.2702955

*RES
1 n7:4 U37:B 0.1
2 n7:5 n7:4 0.1
3 n7:6 n7:5 0.1
4 n7:7 U16:B0 0.1
5 n7:8 n7:9 0.1
6 n7:10 n7:11 0.1
7 n7:12 n7:13 0.1
8 n7:14 n7:15 0.1
9 n7:15 U32:Y 0.1
10 n7:9 n7:7 0.06370001
11 n7:8 n7:11 0.31941
12 n7:13 n7:14 0.27755
13 n7:10 n7:6 0.684775
14 n7:6 n7:12 0.759395

*END

*D_NET n20 8.867982

*CONN
*I U37:AN I *L 1.31 *C 327.97 247.295
*I U31:Y O *L 0.0 *D NOR2XL *C 281.97 239.505
*I U29:A I *L 5.822 *C 327.97 250.985
*N n20:4 *C 327.97 247.295
*N n20:5 *C 327.97 247.705
*N n20:6 *C 327.97 247.705
*N n20:7 *C 327.97 247.705
*N n20:8 *C 281.97 239.505
*N n20:9 *C 281.97 239.505
*N n20:10 *C 327.97 239.505
*N n20:11 *C 327.97 239.505
*N n20:12 *C 327.97 250.985
*N n20:13 *C 327.97 250.985
*N n20:14 *C 327.97 250.985

*CAP
1 U37:AN 0.0
2 U31:Y 0.0
3 U29:A 0.0
4 n20:4 0.07675808
5 n20:5 0.0627336
6 n20:6 0.07675808
7 n20:7 0.4997051
8 n20:8 0.05882944
9 n20:9 2.063943
10 n20:10 0.2964923
11 n20:11 2.005113
12 n20:12 0.06094722
13 n20:13 0.1160578
14 n20:14 0.1955897
15 n20:14 n7:6 0.1770254
16 n20:7 n7:6 0.6406184
17 n20:10 n7:10 0.463593
18 n20:11 n7:11 0.2569236
19 n20:11 n7:8 0.2569236
20 n20:11 i_control_state\[2\]:29 0.3505328
21 n20:11 i_control_state\[2\]:31 0.3505328
22 n20:9 n21:11 0.4294524
23 n20:9 n21:9 0.4294524

*RES
1 n20:4 U37:AN 0.1
2 n20:5 n20:6 0.1
3 n20:7 n20:5 0.1
4 n20:8 U31:Y 0.1
5 n20:9 n20:8 0.1
6 n20:10 n20:11 0.1
7 n20:12 U29:A 0.1
8 n20:13 n20:12 0.1
9 n20:14 n20:13 0.1
10 n20:4 n20:6 0.06370001
11 n20:9 n20:11 4.212391
12 n20:10 n20:7 0.759395
13 n20:7 n20:14 0.311675

*END

*D_NET i_control_state\[2\] 7.510095

*CONN
*I U36:A1N I *L 1.507 *C 312.33 243.605
*I U35:C I *L 1.873 *C 318.31 250.575
*I i_control_state_reg_2_:Q O *L 0.0 *D DFFRX1 *C 316.47 246.885
*I U16:A0 I *L 7.377 *C 323.085 239.905
*I U22:A0 I *L 7.377 *C 319.23 254.675
*I U27:A I *L 13.855 *C 316.01 250.985
*I U26:B I *L 7.067 *C 318.31 257.955
*N i_control_state\[2\]:8 *C 312.33 243.605
*N i_control_state\[2\]:9 *C 312.33 243.605
*N i_control_state\[2\]:10 *C 316.47 243.605
*N i_control_state\[2\]:11 *C 316.47 243.605
*N i_control_state\[2\]:12 *C 318.31 250.575
*N i_control_state\[2\]:13 *C 318.31 250.985
*N i_control_state\[2\]:14 *C 318.31 250.985
*N i_control_state\[2\]:15 *C 316.01 250.985
*N i_control_state\[2\]:16 *C 316.01 250.985
*N i_control_state\[2\]:17 *C 318.31 257.955
*N i_control_state\[2\]:18 *C 318.31 257.955
*N i_control_state\[2\]:19 *C 318.31 257.955
*N i_control_state\[2\]:20 *C 316.47 246.885
*N i_control_state\[2\]:21 *C 316.47 246.885
*N i_control_state\[2\]:22 *C 319.23 254.675
*N i_control_state\[2\]:23 *C 319.23 255.085
*N i_control_state\[2\]:24 *C 319.23 255.085
*N i_control_state\[2\]:25 *C 318.31 255.085
*N i_control_state\[2\]:26 *C 318.31 255.085
*N i_control_state\[2\]:27 *C 321.07 239.915
*N i_control_state\[2\]:28 *C 321.07 239.915
*N i_control_state\[2\]:29 *C 321.07 239.915
*N i_control_state\[2\]:30 *C 316.47 239.915
*N i_control_state\[2\]:31 *C 316.47 239.915
*N i_control_state\[2\]:32 *C 316.47 246.885
*N i_control_state\[2\]:33 *C 318.31 246.885
*N i_control_state\[2\]:34 *C 318.31 246.885
*N i_control_state\[2\]:35 *C 318.31 250.985

*CAP
1 U36:A1N 0.0
2 U35:C 0.0
3 i_control_state_reg_2_:Q 0.0
4 U16:A0 0.08785418
5 U22:A0 0.0
6 U27:A 0.0
7 U26:B 0.0
8 i_control_state\[2\]:8 0.07007561
9 i_control_state\[2\]:9 0.5694522
10 i_control_state\[2\]:10 0.4379067
11 i_control_state\[2\]:11 0.4993766
12 i_control_state\[2\]:12 0.09456133
13 i_control_state\[2\]:13 0.4289043
14 i_control_state\[2\]:14 0.09456133
15 i_control_state\[2\]:15 0.08308312
16 i_control_state\[2\]:16 0.5119874
17 i_control_state\[2\]:17 0.08817416
18 i_control_state\[2\]:18 0.1528887
19 i_control_state\[2\]:19 0.2674026
20 i_control_state\[2\]:20 0.08675773
21 i_control_state\[2\]:21 0.1739408
22 i_control_state\[2\]:22 0.07403935
23 i_control_state\[2\]:23 0.1352594
24 i_control_state\[2\]:24 0.07403935
25 i_control_state\[2\]:25 0.4571145
26 i_control_state\[2\]:26 0.1352594
27 i_control_state\[2\]:27 0.06495218
28 i_control_state\[2\]:28 0.08785418
29 i_control_state\[2\]:29 0.2556594
30 i_control_state\[2\]:30 0.2199004
31 i_control_state\[2\]:31 0.1907072
32 i_control_state\[2\]:32 0.2180062
33 i_control_state\[2\]:33 0.2837308
34 i_control_state\[2\]:34 0.08718303
35 i_control_state\[2\]:35 0.5381572
36 i_control_state\[2\]:29 n20:11 0.3505328
37 i_control_state\[2\]:31 n20:11 0.3505328
38 i_control_state\[2\]:34 n6:5 0.1701197
39 i_control_state\[2\]:21 n6:5 0.1701197

*RES
1 i_control_state\[2\]:8 U36:A1N 0.1
2 i_control_state\[2\]:9 i_control_state\[2\]:8 0.1
3 i_control_state\[2\]:10 i_control_state\[2\]:11 0.1
4 i_control_state\[2\]:12 U35:C 0.1
5 i_control_state\[2\]:13 i_control_state\[2\]:14 0.1
6 i_control_state\[2\]:15 U27:A 0.1
7 i_control_state\[2\]:16 i_control_state\[2\]:15 0.1
8 i_control_state\[2\]:17 U26:B 0.1
9 i_control_state\[2\]:18 i_control_state\[2\]:17 0.1
10 i_control_state\[2\]:19 i_control_state\[2\]:18 0.1
11 i_control_state\[2\]:20 i_control_state_reg_2_:Q 0.1
12 i_control_state\[2\]:21 i_control_state\[2\]:20 0.1
13 i_control_state\[2\]:22 U22:A0 0.1
14 i_control_state\[2\]:23 i_control_state\[2\]:24 0.1
15 i_control_state\[2\]:25 i_control_state\[2\]:26 0.1
16 i_control_state\[2\]:27 i_control_state\[2\]:28 0.1
17 i_control_state\[2\]:29 i_control_state\[2\]:27 0.1
18 i_control_state\[2\]:30 i_control_state\[2\]:31 0.1
19 i_control_state\[2\]:32 i_control_state\[2\]:21 0.1
20 i_control_state\[2\]:33 i_control_state\[2\]:34 0.1
21 i_control_state\[2\]:35 i_control_state\[2\]:13 0.1
22 i_control_state\[2\]:28 U16:A0 0.0664125
23 i_control_state\[2\]:12 i_control_state\[2\]:14 0.06370001
24 i_control_state\[2\]:22 i_control_state\[2\]:24 0.06370001
25 i_control_state\[2\]:9 i_control_state\[2\]:11 0.4031301
26 i_control_state\[2\]:16 i_control_state\[2\]:13 0.23569
27 i_control_state\[2\]:31 i_control_state\[2\]:29 0.44499
28 i_control_state\[2\]:21 i_control_state\[2\]:34 0.19383
29 i_control_state\[2\]:26 i_control_state\[2\]:23 0.11011
30 i_control_state\[2\]:30 i_control_state\[2\]:10 0.348985
31 i_control_state\[2\]:10 i_control_state\[2\]:32 0.311675
32 i_control_state\[2\]:33 i_control_state\[2\]:35 0.386295
33 i_control_state\[2\]:35 i_control_state\[2\]:25 0.3731
34 i_control_state\[2\]:25 i_control_state\[2\]:19 0.274365

*END

*D_NET n19 4.597177

*CONN
*I U36:Y O *L 0.0 *D AOI2BB1XL *C 310.95 244.015
*I i_control_state_reg_0_:D I *L 1.119 *C 275.53 247.295
*N n19:3 *C 310.95 244.015
*N n19:4 *C 310.95 244.015
*N n19:5 *C 275.53 244.015
*N n19:6 *C 275.53 244.015
*N n19:7 *C 275.53 247.705
*N n19:8 *C 275.53 247.705
*N n19:9 *C 275.53 247.705
*N n19:10 *C 275.53 247.295

*CAP
1 U36:Y 0.0
2 i_control_state_reg_0_:D 0.0
3 n19:3 0.06308404
4 n19:4 1.900789
5 n19:5 0.2428524
6 n19:6 1.837705
7 n19:7 0.2428524
8 n19:8 0.08897348
9 n19:9 0.154947
10 n19:10 0.06597352

*RES
1 n19:3 U36:Y 0.1
2 n19:4 n19:3 0.1
3 n19:5 n19:6 0.1
4 n19:7 n19:8 0.1
5 n19:8 n19:9 0.1
6 n19:10 i_control_state_reg_0_:D 0.1
7 n19:10 n19:9 0.06370001
8 n19:6 n19:4 3.24961
9 n19:5 n19:7 0.3621801

*END

*D_NET n22 16.6049

*CONN
*I U36:A0N I *L 1.436 *C 312.79 243.605
*I U28:A I *L 5.822 *C 325.67 254.675
*I U16:A1 I *L 6.308 *C 322.45 239.505
*I i_control_state_reg_1_:QN O *L 0.0 *D DFFRXL *C 333.49 354.305
*N n22:5 *C 312.79 243.605
*N n22:6 *C 312.79 243.195
*N n22:7 *C 312.79 243.195
*N n22:8 *C 323.83 243.195
*N n22:9 *C 323.83 243.195
*N n22:10 *C 325.67 254.675
*N n22:11 *C 325.67 255.085
*N n22:12 *C 325.67 255.085
*N n22:13 *C 333.49 354.305
*N n22:14 *C 333.49 354.305
*N n22:15 *C 330.73 354.305
*N n22:16 *C 330.73 354.305
*N n22:17 *C 330.73 255.085
*N n22:18 *C 330.73 255.085
*N n22:19 *C 322.45 239.505
*N n22:20 *C 322.45 240.325
*N n22:21 *C 322.45 240.325
*N n22:22 *C 323.83 240.325
*N n22:23 *C 323.83 240.325
*N n22:24 *C 323.83 255.085
*N n22:25 *C 323.83 255.085
*N n22:26 *C 330.73 304.94

*CAP
1 U36:A0N 0.0
2 U28:A 0.0
3 U16:A1 0.0
4 i_control_state_reg_1_:QN 0.0
5 n22:5 0.06738731
6 n22:6 0.8394701
7 n22:7 0.06738731
8 n22:8 0.8316108
9 n22:9 0.8394701
10 n22:10 0.08125442
11 n22:11 0.8294502
12 n22:12 0.08125442
13 n22:13 0.0716368
14 n22:14 0.385546
15 n22:15 2.30577
16 n22:16 0.3139092
17 n22:17 2.354175
18 n22:18 0.6212252
19 n22:19 0.1008866
20 n22:20 0.05591882
21 n22:21 0.1008866
22 n22:22 0.1889452
23 n22:23 0.05591882
24 n22:24 0.6426656
25 n22:25 0.2082251
26 n22:26 4.659945
27 n22:24 i_control_state\[0\]:14 0.3643551
28 n22:24 i_control_state\[0\]:20 0.241332
29 n22:23 n6:10 0.1481372
30 n22:20 n6:9 0.1481372

*RES
1 n22:5 U36:A0N 0.1
2 n22:6 n22:7 0.1
3 n22:8 n22:9 0.1
4 n22:10 U28:A 0.1
5 n22:11 n22:12 0.1
6 n22:13 i_control_state_reg_1_:QN 0.1
7 n22:14 n22:13 0.1
8 n22:15 n22:16 0.1
9 n22:17 n22:18 0.1
10 n22:19 U16:A1 0.1
11 n22:20 n22:21 0.1
12 n22:22 n22:23 0.1
13 n22:24 n22:25 0.1
14 n22:7 n22:5 0.06370001
15 n22:19 n22:21 0.10101
16 n22:10 n22:12 0.06370001
17 n22:6 n22:9 1.03103
18 n22:20 n22:23 0.15197
19 n22:25 n22:11 0.180635
20 n22:11 n22:18 0.4736551
21 n22:16 n22:14 0.27755
22 n22:22 n22:8 0.274365
23 n22:8 n22:24 1.095185
24 n22:26 n22:15 4.505411
25 n22:26 n22:17 4.55

*END

*D_NET n5 7.633116

*CONN
*I U36:B0 I *L 1.811 *C 311.87 244.015
*I U34:Y O *L 0.0 *D NOR2XL *C 290.71 246.885
*I U15:A0 I *L 2.128 *C 312.79 246.885
*N n5:4 *C 311.87 244.015
*N n5:5 *C 311.87 244.015
*N n5:6 *C 312.79 244.015
*N n5:7 *C 312.79 244.015
*N n5:8 *C 312.79 246.475
*N n5:9 *C 312.79 246.475
*N n5:10 *C 312.79 246.885
*N n5:11 *C 312.79 246.475
*N n5:12 *C 290.71 246.885
*N n5:13 *C 290.71 246.475
*N n5:14 *C 290.71 246.475

*CAP
1 U36:B0 0.0
2 U34:Y 0.0
3 U15:A0 0.0
4 n5:4 0.06773095
5 n5:5 0.2015241
6 n5:6 0.1987739
7 n5:7 0.1337931
8 n5:8 0.1987739
9 n5:9 0.2614949
10 n5:10 0.08661442
11 n5:11 0.08661442
12 n5:12 0.08628672
13 n5:13 0.2614949
14 n5:14 0.08628672
15 n5:9 n21:15 1.479663
16 n5:13 n21:13 1.479663
17 n5:9 data_e_pad:4 1.008774
18 n5:13 data_e_pad:19 1.638545
19 n5:9 n15:14 0.04786091
20 n5:9 n15:21 0.1785414
21 n5:9 n15:11 0.1306805

*RES
1 n5:4 U36:B0 0.1
2 n5:5 n5:4 0.1
3 n5:6 n5:7 0.1
4 n5:8 n5:9 0.1
5 n5:10 U15:A0 0.1
6 n5:9 n5:11 0.1
7 n5:12 U34:Y 0.1
8 n5:13 n5:14 0.1
9 n5:14 n5:12 0.06370001
10 n5:11 n5:10 0.06370001
11 n5:13 n5:9 2.03567
12 n5:5 n5:7 0.11011
13 n5:6 n5:8 0.25025

*END

*D_NET n11 3.502327

*CONN
*I U35:Y O *L 0.0 *D NAND3XL *C 319.69 251.395
*I U23:C I *L 7.417 *C 309.11 251.395
*I U22:C0 I *L 6.314 *C 321.53 254.675
*N n11:4 *C 319.69 251.395
*N n11:5 *C 319.69 251.395
*N n11:6 *C 309.11 251.395
*N n11:7 *C 309.11 251.395
*N n11:8 *C 319.69 252.215
*N n11:9 *C 319.69 252.215
*N n11:10 *C 320.15 252.215
*N n11:11 *C 320.15 252.215
*N n11:12 *C 320.15 255.085
*N n11:13 *C 320.15 255.085
*N n11:14 *C 321.53 255.085
*N n11:15 *C 321.53 255.085
*N n11:16 *C 321.53 254.675

*CAP
1 U35:Y 0.0
2 U23:C 0.08798424
3 U22:C0 0.0
4 n11:4 0.08638751
5 n11:5 1.052041
6 n11:6 0.9656538
7 n11:7 0.08798424
8 n11:8 0.04206333
9 n11:9 0.09871557
10 n11:10 0.2312818
11 n11:11 0.05665224
12 n11:12 0.2312818
13 n11:13 0.1946416
14 n11:14 0.1946416
15 n11:15 0.0864988
16 n11:16 0.0864988

*RES
1 n11:4 U35:Y 0.1
2 n11:5 n11:4 0.1
3 n11:6 n11:7 0.1
4 n11:7 U23:C 0.1
5 n11:8 U35:Y 0.1
6 n11:9 n11:8 0.1
7 n11:10 n11:11 0.1
8 n11:12 n11:13 0.1
9 n11:14 n11:15 0.1
10 n11:16 U22:C0 0.1
11 n11:16 n11:15 0.06370001
12 n11:6 n11:5 0.9891701
13 n11:9 n11:11 0.06825001
14 n11:13 n11:14 0.15197
15 n11:10 n11:12 0.28756

*END

*D_NET i_control_state\[1\] 17.9628

*CONN
*I U35:A I *L 2.021 *C 319.23 250.985
*I U34:A I *L 1.902 *C 290.25 247.295
*I U30:A I *L 1.902 *C 321.53 258.365
*I i_control_state_reg_1_:Q O *L 0.0 *D DFFRXL *C 333.055 354.175
*N i_control_state\[1\]:5 *C 319.23 250.985
*N i_control_state\[1\]:6 *C 319.23 250.985
*N i_control_state\[1\]:7 *C 321.53 258.365
*N i_control_state\[1\]:8 *C 321.53 257.955
*N i_control_state\[1\]:9 *C 321.53 257.955
*N i_control_state\[1\]:10 *C 332.11 353.485
*N i_control_state\[1\]:11 *C 332.11 353.485
*N i_control_state\[1\]:12 *C 332.11 353.485
*N i_control_state\[1\]:13 *C 328.43 353.485
*N i_control_state\[1\]:14 *C 328.43 353.485
*N i_control_state\[1\]:15 *C 328.43 257.955
*N i_control_state\[1\]:16 *C 328.43 257.955
*N i_control_state\[1\]:17 *C 321.07 257.955
*N i_control_state\[1\]:18 *C 321.07 257.955
*N i_control_state\[1\]:19 *C 321.07 250.985
*N i_control_state\[1\]:20 *C 321.07 250.985
*N i_control_state\[1\]:21 *C 290.25 247.295
*N i_control_state\[1\]:22 *C 290.25 248.115
*N i_control_state\[1\]:23 *C 290.25 248.115
*N i_control_state\[1\]:24 *C 299.45 248.115
*N i_control_state\[1\]:25 *C 299.45 248.115
*N i_control_state\[1\]:26 *C 299.45 250.985
*N i_control_state\[1\]:27 *C 299.45 250.985
*N i_control_state\[1\]:28 *C 319.23 250.985
*N i_control_state\[1\]:29 *C 319.23 250.985
*N i_control_state\[1\]:30 *C 319.69 250.985
*N i_control_state\[1\]:31 *C 319.69 250.985
*N i_control_state\[1\]:32 *C 328.43 307.81

*CAP
1 U35:A 0.0
2 U34:A 0.0
3 U30:A 0.0
4 i_control_state_reg_1_:Q 0.114741
5 i_control_state\[1\]:5 0.08935098
6 i_control_state\[1\]:6 0.1515446
7 i_control_state\[1\]:7 0.08437754
8 i_control_state\[1\]:8 0.4003297
9 i_control_state\[1\]:9 0.08437754
10 i_control_state\[1\]:10 0.07158722
11 i_control_state\[1\]:11 0.114741
12 i_control_state\[1\]:12 0.2141888
13 i_control_state\[1\]:13 2.129812
14 i_control_state\[1\]:14 0.1426015
15 i_control_state\[1\]:15 2.331627
16 i_control_state\[1\]:16 0.3956063
17 i_control_state\[1\]:17 0.4636271
18 i_control_state\[1\]:18 0.004723355
19 i_control_state\[1\]:19 0.4636271
20 i_control_state\[1\]:20 0.08199111
21 i_control_state\[1\]:21 0.1229314
22 i_control_state\[1\]:22 0.2715647
23 i_control_state\[1\]:23 0.1229314
24 i_control_state\[1\]:24 0.2048643
25 i_control_state\[1\]:25 0.2715647
26 i_control_state\[1\]:26 1.054253
27 i_control_state\[1\]:27 0.2048643
28 i_control_state\[1\]:28 1.054253
29 i_control_state\[1\]:29 0.06313583
30 i_control_state\[1\]:30 0.06313583
31 i_control_state\[1\]:31 0.1441848
32 i_control_state\[1\]:32 4.461439
33 i_control_state\[1\]:8 i_control_state\[0\]:10 0.127605
34 i_control_state\[1\]:8 i_control_state\[0\]:8 0.1929901
35 i_control_state\[1\]:18 i_control_state\[0\]:8 0.06538517
36 i_control_state\[1\]:20 i_control_state\[0\]:21 0.10303
37 i_control_state\[1\]:31 i_control_state\[0\]:6 0.10303
38 i_control_state\[1\]:6 i_control_state\[0\]:6 0.09736209
39 i_control_state\[1\]:12 rst_pad:8 0.2750326
40 i_control_state\[1\]:14 rst_pad:10 0.2750326
41 i_control_state\[1\]:25 rst_pad:6 0.6726779
42 i_control_state\[1\]:22 rst_pad:6 0.6726779

*RES
1 i_control_state\[1\]:5 U35:A 0.1
2 i_control_state\[1\]:6 i_control_state\[1\]:5 0.1
3 i_control_state\[1\]:7 U30:A 0.1
4 i_control_state\[1\]:8 i_control_state\[1\]:9 0.1
5 i_control_state\[1\]:10 i_control_state\[1\]:11 0.1
6 i_control_state\[1\]:12 i_control_state\[1\]:10 0.1
7 i_control_state\[1\]:13 i_control_state\[1\]:14 0.1
8 i_control_state\[1\]:15 i_control_state\[1\]:16 0.1
9 i_control_state\[1\]:17 i_control_state\[1\]:18 0.1
10 i_control_state\[1\]:19 i_control_state\[1\]:20 0.1
11 i_control_state\[1\]:21 U34:A 0.1
12 i_control_state\[1\]:22 i_control_state\[1\]:23 0.1
13 i_control_state\[1\]:24 i_control_state\[1\]:25 0.1
14 i_control_state\[1\]:26 i_control_state\[1\]:27 0.1
15 i_control_state\[1\]:28 i_control_state\[1\]:29 0.1
16 i_control_state\[1\]:30 i_control_state\[1\]:31 0.1
17 i_control_state\[1\]:11 i_control_state_reg_1_:Q 0.1428875
18 i_control_state\[1\]:21 i_control_state\[1\]:23 0.10101
19 i_control_state\[1\]:9 i_control_state\[1\]:7 0.06370001
20 i_control_state\[1\]:22 i_control_state\[1\]:25 0.8635901
21 i_control_state\[1\]:6 i_control_state\[1\]:31 0.05505501
22 i_control_state\[1\]:31 i_control_state\[1\]:20 0.138775
23 i_control_state\[1\]:18 i_control_state\[1\]:8 0.05505501
24 i_control_state\[1\]:8 i_control_state\[1\]:16 0.641095
25 i_control_state\[1\]:14 i_control_state\[1\]:12 0.3612701
26 i_control_state\[1\]:24 i_control_state\[1\]:27 0.28756
27 i_control_state\[1\]:29 i_control_state\[1\]:30 0.06006001
28 i_control_state\[1\]:19 i_control_state\[1\]:17 0.6606601
29 i_control_state\[1\]:32 i_control_state\[1\]:13 4.169621
30 i_control_state\[1\]:26 i_control_state\[1\]:28 1.82637
31 i_control_state\[1\]:32 i_control_state\[1\]:15 4.550001

*END

*D_NET i_control_state\[0\] 10.0308

*CONN
*I U35:B I *L 2.012 *C 318.77 250.575
*I U30:B I *L 1.722 *C 321.07 258.365
*I U28:B I *L 5.96 *C 326.135 254.92
*I i_control_state_reg_0_:Q O *L 0.0 *D DFFRXL *C 283.35 248.115
*N i_control_state\[0\]:5 *C 318.77 250.575
*N i_control_state\[0\]:6 *C 318.77 250.575
*N i_control_state\[0\]:7 *C 321.07 258.365
*N i_control_state\[0\]:8 *C 321.07 258.365
*N i_control_state\[0\]:9 *C 323.37 258.365
*N i_control_state\[0\]:10 *C 323.37 258.365
*N i_control_state\[0\]:11 *C 323.37 254.675
*N i_control_state\[0\]:12 *C 323.37 254.675
*N i_control_state\[0\]:13 *C 323.37 254.675
*N i_control_state\[0\]:14 *C 323.37 254.675
*N i_control_state\[0\]:15 *C 283.35 248.115
*N i_control_state\[0\]:16 *C 283.35 248.115
*N i_control_state\[0\]:17 *C 283.35 248.115
*N i_control_state\[0\]:18 *C 283.35 250.575
*N i_control_state\[0\]:19 *C 283.35 250.575
*N i_control_state\[0\]:20 *C 323.37 250.575
*N i_control_state\[0\]:21 *C 323.37 250.575

*CAP
1 U35:B 0.0
2 U30:B 0.0
3 U28:B 0.1795308
4 i_control_state_reg_0_:Q 0.0
5 i_control_state\[0\]:5 0.09075099
6 i_control_state\[0\]:6 2.322959
7 i_control_state\[0\]:7 0.07774313
8 i_control_state\[0\]:8 0.2870563
9 i_control_state\[0\]:9 0.2248259
10 i_control_state\[0\]:10 0.2093132
11 i_control_state\[0\]:11 0.08065156
12 i_control_state\[0\]:12 0.1795308
13 i_control_state\[0\]:13 0.184009
14 i_control_state\[0\]:14 0.4767127
15 i_control_state\[0\]:15 0.07305472
16 i_control_state\[0\]:16 0.1525302
17 i_control_state\[0\]:17 0.2521951
18 i_control_state\[0\]:18 0.1727196
19 i_control_state\[0\]:19 1.837564
20 i_control_state\[0\]:20 0.1485295
21 i_control_state\[0\]:21 0.3946447
22 i_control_state\[0\]:14 n22:24 0.3643551
23 i_control_state\[0\]:20 n22:24 0.241332
24 i_control_state\[0\]:10 i_control_state\[1\]:8 0.127605
25 i_control_state\[0\]:8 i_control_state\[1\]:8 0.1929901
26 i_control_state\[0\]:8 i_control_state\[1\]:18 0.06538517
27 i_control_state\[0\]:21 i_control_state\[1\]:20 0.10303
28 i_control_state\[0\]:6 i_control_state\[1\]:31 0.10303
29 i_control_state\[0\]:6 i_control_state\[1\]:6 0.09736209
30 i_control_state\[0\]:6 halt_pad:5 0.6956929
31 i_control_state\[0\]:19 halt_pad:12 0.6956929

*RES
1 i_control_state\[0\]:5 U35:B 0.1
2 i_control_state\[0\]:6 i_control_state\[0\]:5 0.1
3 i_control_state\[0\]:7 U30:B 0.1
4 i_control_state\[0\]:8 i_control_state\[0\]:7 0.1
5 i_control_state\[0\]:9 i_control_state\[0\]:10 0.1
6 i_control_state\[0\]:11 i_control_state\[0\]:12 0.1
7 i_control_state\[0\]:13 i_control_state\[0\]:11 0.1
8 i_control_state\[0\]:14 i_control_state\[0\]:13 0.1
9 i_control_state\[0\]:15 i_control_state_reg_0_:Q 0.1
10 i_control_state\[0\]:16 i_control_state\[0\]:15 0.1
11 i_control_state\[0\]:17 i_control_state\[0\]:16 0.1
12 i_control_state\[0\]:18 i_control_state\[0\]:19 0.1
13 i_control_state\[0\]:20 i_control_state\[0\]:21 0.1
14 i_control_state\[0\]:12 U28:B 0.2515625
15 i_control_state\[0\]:19 i_control_state\[0\]:6 3.236416
16 i_control_state\[0\]:6 i_control_state\[0\]:21 0.431795
17 i_control_state\[0\]:8 i_control_state\[0\]:10 0.23569
18 i_control_state\[0\]:17 i_control_state\[0\]:18 0.25025
19 i_control_state\[0\]:20 i_control_state\[0\]:14 0.386295
20 i_control_state\[0\]:14 i_control_state\[0\]:9 0.348985

*END

*D_NET n21 7.867636

*CONN
*I U34:B I *L 1.722 *C 289.79 247.295
*I U31:B I *L 1.722 *C 282.865 240.007
*I i_control_state_reg_2_:QN O *L 0.0 *D DFFRX1 *C 316.93 247.295
*N n21:4 *C 289.79 247.295
*N n21:5 *C 289.79 246.475
*N n21:6 *C 289.79 246.475
*N n21:7 *C 283.81 239.915
*N n21:8 *C 283.81 239.915
*N n21:9 *C 283.81 239.915
*N n21:10 *C 289.79 239.915
*N n21:11 *C 289.79 239.915
*N n21:12 *C 289.79 246.065
*N n21:13 *C 289.79 246.065
*N n21:14 *C 316.93 247.295
*N n21:15 *C 316.93 246.065
*N n21:16 *C 316.93 246.065

*CAP
1 U34:B 0.0
2 U31:B 0.08351512
3 i_control_state_reg_2_:QN 0.0
4 n21:4 0.1259522
5 n21:5 0.06773615
6 n21:6 0.1259522
7 n21:7 0.05476769
8 n21:8 0.08351512
9 n21:9 0.2536608
10 n21:10 0.38741
11 n21:11 0.1988932
12 n21:12 0.38741
13 n21:13 1.018458
14 n21:14 0.1557065
15 n21:15 0.9507218
16 n21:16 0.1557065
17 n21:11 n20:9 0.4294524
18 n21:9 n20:9 0.4294524
19 n21:15 n5:9 1.479663
20 n21:13 n5:13 1.479663

*RES
1 n21:4 U34:B 0.1
2 n21:5 n21:6 0.1
3 n21:7 n21:8 0.1
4 n21:9 n21:7 0.1
5 n21:10 n21:11 0.1
6 n21:12 n21:13 0.1
7 n21:14 i_control_state_reg_2_:QN 0.1
8 n21:15 n21:16 0.1
9 U31:B n21:8 0.1418813
10 n21:6 n21:4 0.10101
11 n21:16 n21:14 0.13832
12 n21:9 n21:11 0.5705701
13 n21:13 n21:15 2.480933
14 n21:13 n21:5 0.04641001
15 n21:10 n21:12 0.58604

*END

*D_NET n14 4.227935

*CONN
*I U33:Y O *L 0.0 *D INVXL *C 314.63 255.085
*I U25:B I *L 5.96 *C 310.95 247.705
*I U26:C I *L 7.417 *C 318.77 258.775
*N n14:4 *C 314.63 255.085
*N n14:5 *C 314.63 255.085
*N n14:6 *C 314.63 255.085
*N n14:7 *C 318.77 258.775
*N n14:8 *C 318.77 259.185
*N n14:9 *C 318.77 259.185
*N n14:10 *C 314.63 259.185
*N n14:11 *C 314.63 259.185
*N n14:12 *C 314.63 248.115
*N n14:13 *C 314.63 248.115
*N n14:14 *C 310.95 248.115
*N n14:15 *C 310.95 248.115
*N n14:16 *C 310.95 247.705

*CAP
1 U33:Y 0.0
2 U25:B 0.04524012
3 U26:C 0.0
4 n14:4 0.06743702
5 n14:5 0.08297914
6 n14:6 0.7165253
7 n14:7 0.0881402
8 n14:8 0.2809412
9 n14:9 0.0881402
10 n14:10 0.2741729
11 n14:11 0.2809412
12 n14:12 0.4268102
13 n14:13 0.1621643
14 n14:14 0.1621643
15 n14:15 0.0885297
16 n14:16 0.1337698
17 n14:8 n13:12 0.3047601
18 n14:11 n13:27 0.3047601
19 n14:5 n13:14 0.1525
20 n14:13 rst_pad:21 0.2839798
21 n14:14 rst_pad:21 0.2839798

*RES
1 n14:4 U33:Y 0.1
2 n14:5 n14:4 0.1
3 n14:6 n14:5 0.1
4 n14:7 U26:C 0.1
5 n14:8 n14:9 0.1
6 n14:10 n14:11 0.1
7 n14:12 n14:13 0.1
8 n14:14 n14:15 0.1
9 n14:16 U25:B 0.1
10 n14:16 n14:15 0.06370001
11 n14:7 n14:9 0.06370001
12 n14:14 n14:13 0.36127
13 n14:11 n14:8 0.4031301
14 n14:12 n14:6 0.6474651
15 n14:6 n14:10 0.386295

*END

*D_NET n13 8.596682

*CONN
*I U33:A I *L 1.632 *C 315.09 254.675
*I U30:Y O *L 0.0 *D NOR2XL *C 321.99 258.775
*I U29:B I *L 5.96 *C 327.05 250.985
*I U20:A I *L 2.225 *C 312.33 257.545
*I U17:C I *L 1.873 *C 310.47 262.217
*N n13:6 *C 311.41 262.055
*N n13:7 *C 311.41 262.055
*N n13:8 *C 311.41 262.055
*N n13:9 *C 311.87 262.055
*N n13:10 *C 311.87 262.055
*N n13:11 *C 321.99 258.775
*N n13:12 *C 321.99 258.775
*N n13:13 *C 315.09 254.675
*N n13:14 *C 315.09 254.675
*N n13:15 *C 311.87 254.675
*N n13:16 *C 311.87 254.675
*N n13:17 *C 327.05 250.985
*N n13:18 *C 327.05 250.985
*N n13:19 *C 327.05 250.985
*N n13:20 *C 327.05 258.775
*N n13:21 *C 327.05 258.775
*N n13:22 *C 312.33 257.545
*N n13:23 *C 312.33 257.545
*N n13:24 *C 311.87 256.725
*N n13:25 *C 311.87 256.725
*N n13:26 *C 311.87 258.775
*N n13:27 *C 311.87 258.775
*N n13:28 *C 312.79 256.725
*N n13:29 *C 312.79 257.545

*CAP
1 U33:A 0.0
2 U30:Y 0.0
3 U29:B 0.0
4 U20:A 0.0
5 U17:C 0.09663545
6 n13:6 0.06831867
7 n13:7 0.09663545
8 n13:8 0.1455467
9 n13:9 0.1477507
10 n13:10 0.07722808
11 n13:11 0.07774314
12 n13:12 1.050892
13 n13:13 0.06743702
14 n13:14 0.3113765
15 n13:15 0.04422427
16 n13:16 0.2439395
17 n13:17 0.06045361
18 n13:18 0.1190871
19 n13:19 0.4620818
20 n13:20 0.4034483
21 n13:21 0.4466408
22 n13:22 0.07487038
23 n13:23 0.1282133
24 n13:24 0.04894979
25 n13:25 0.05683994
26 n13:26 0.1524762
27 n13:27 0.5265078
28 n13:28 0.05683994
29 n13:29 0.05334288
30 n13:20 n7:12 0.2702955
31 n13:19 n7:6 0.2702955
32 n13:12 n14:8 0.3047601
33 n13:27 n14:11 0.3047601
34 n13:14 n14:5 0.1525
35 n13:9 opcode_pad\[0\]:17 0.08725175
36 n13:26 opcode_pad\[0\]:24 0.1308156
37 n13:26 opcode_pad\[0\]:8 0.1195017
38 n13:24 opcode_pad\[0\]:24 0.4161156
39 n13:15 opcode_pad\[0\]:24 0.1264872
40 n13:29 opcode_pad\[0\]:9 0.03589179
41 n13:29 opcode_pad\[0\]:25 0.0412811
42 n13:23 opcode_pad\[0\]:9 0.01448842
43 n13:23 opcode_pad\[0\]:25 0.02173263
44 n13:28 opcode_pad\[0\]:25 0.0815485
45 n13:25 opcode_pad\[0\]:25 0.0402674
46 n13:10 opcode_pad\[0\]:18 0.07875489
47 n13:26 n15:18 0.1601823
48 n13:24 n15:18 0.07297196
49 n13:15 n15:8 0.2271672
50 n13:27 n15:17 0.3110674
51 n13:27 n15:19 0.3110674

*RES
1 n13:6 n13:7 0.1
2 n13:8 n13:6 0.1
3 n13:9 n13:10 0.1
4 n13:11 U30:Y 0.1
5 n13:12 n13:11 0.1
6 n13:13 U33:A 0.1
7 n13:14 n13:13 0.1
8 n13:15 n13:16 0.1
9 n13:17 U29:B 0.1
10 n13:18 n13:17 0.1
11 n13:19 n13:18 0.1
12 n13:20 n13:21 0.1
13 n13:22 U20:A 0.1
14 n13:23 n13:22 0.1
15 n13:24 n13:25 0.1
16 n13:26 n13:27 0.1
17 U17:C n13:7 0.1428875
18 n13:8 n13:10 0.06825001
19 n13:16 n13:14 0.31941
20 n13:25 n13:28 0.106015
21 n13:27 n13:12 0.9341151
22 n13:12 n13:21 0.473655
23 n13:23 n13:29 0.06415501
24 n13:28 n13:29 0.05642001
25 n13:15 n13:24 0.199745
26 n13:24 n13:26 0.18655
27 n13:26 n13:9 0.311675
28 n13:19 n13:20 0.73528

*END

*D_NET ld_ir_pad 23.28644

*CONN
*I U32:A I *L 1.632 *C 330.73 254.675
*I U28:Y O *L 0.0 *D NOR2X2 *C 326.59 254.675
*I i_ld_ir:I I *L 77.0 *C 407.69 349.92
*N ld_ir_pad:4 *C 330.73 254.675
*N ld_ir_pad:5 *C 330.73 254.675
*N ld_ir_pad:6 *C 326.59 254.675
*N ld_ir_pad:7 *C 326.59 254.675
*N ld_ir_pad:8 *C 394.67 349.795
*N ld_ir_pad:9 *C 394.67 349.795
*N ld_ir_pad:10 *C 394.67 254.675
*N ld_ir_pad:11 *C 394.67 254.675
*N ld_ir_pad:12 *C 400.17 349.857
*N ld_ir_pad:13 *C 400.17 349.857
*N ld_ir_pad:14 *C 400.17 349.857
*N ld_ir_pad:15 *C 400.17 349.857
*N ld_ir_pad:16 *C 400.17 349.857
*N ld_ir_pad:17 *C 394.67 304.53
*N ld_ir_pad:18 *C 380.73 254.675

*CAP
1 U32:A 0.0
2 U28:Y 0.0
3 i_ld_ir:I 0.4394619
4 ld_ir_pad:4 0.07242518
5 ld_ir_pad:5 1.939705
6 ld_ir_pad:6 0.07713
7 ld_ir_pad:7 0.3788084
8 ld_ir_pad:8 3.177434
9 ld_ir_pad:9 0.3117819
10 ld_ir_pad:10 1.721371
11 ld_ir_pad:11 0.618382
12 ld_ir_pad:12 0.3117819
13 ld_ir_pad:13 0.0
14 ld_ir_pad:14 0.0
15 ld_ir_pad:15 0.0
16 ld_ir_pad:16 0.4394619
17 ld_ir_pad:17 4.898806
18 ld_ir_pad:18 2.183983
19 ld_ir_pad:18 inc_pc_pad:4 0.1183649
20 ld_ir_pad:18 inc_pc_pad:14 1.466334
21 ld_ir_pad:5 inc_pc_pad:8 1.413408
22 ld_ir_pad:7 inc_pc_pad:8 0.06543972
23 ld_ir_pad:7 inc_pc_pad:7 0.3554518
24 ld_ir_pad:10 n4:6 0.9795991
25 ld_ir_pad:8 n4:19 0.5535368
26 ld_ir_pad:17 n4:18 1.763771

*RES
1 ld_ir_pad:4 U32:A 0.1
2 ld_ir_pad:5 ld_ir_pad:4 0.1
3 ld_ir_pad:6 U28:Y 0.1
4 ld_ir_pad:7 ld_ir_pad:6 0.1
5 ld_ir_pad:8 ld_ir_pad:9 0.1
6 ld_ir_pad:10 ld_ir_pad:11 0.1
7 ld_ir_pad:7 ld_ir_pad:5 0.389935
8 ld_ir_pad:18 ld_ir_pad:11 1.281735
9 ld_ir_pad:9 ld_ir_pad:12 0.5227951
10 ld_ir_pad:12 ld_ir_pad:14 1e-07
11 ld_ir_pad:14 ld_ir_pad:13 1e-07
12 ld_ir_pad:13 ld_ir_pad:15 1e-07
13 ld_ir_pad:15 ld_ir_pad:16 1e-07
14 ld_ir_pad:16 i_ld_ir:I 0.6611151
15 ld_ir_pad:17 ld_ir_pad:8 4.132311
16 ld_ir_pad:17 ld_ir_pad:10 4.550001
17 ld_ir_pad:18 ld_ir_pad:5 4.550001

*END

*D_NET n23 10.49069

*CONN
*I U31:A I *L 1.902 *C 282.43 239.915
*I i_control_state_reg_0_:QN O *L 0.0 *D DFFRXL *C 282.89 247.295
*I U15:A1 I *L 1.927 *C 312.33 247.295
*N n23:4 *C 282.43 239.915
*N n23:5 *C 282.43 239.915
*N n23:6 *C 281.97 239.915
*N n23:7 *C 281.97 239.915
*N n23:8 *C 281.97 247.295
*N n23:9 *C 281.97 247.295
*N n23:10 *C 282.89 247.295
*N n23:11 *C 282.89 247.295
*N n23:12 *C 312.33 247.295
*N n23:13 *C 312.33 247.295

*CAP
1 U31:A 0.0
2 i_control_state_reg_0_:QN 0.0
3 U15:A1 0.0
4 n23:4 0.05811859
5 n23:5 0.1392309
6 n23:6 0.4669947
7 n23:7 0.08111232
8 n23:8 0.4669947
9 n23:9 0.08460009
10 n23:10 0.08057533
11 n23:11 0.5565112
12 n23:12 0.07911642
13 n23:13 0.4704518
14 n23:13 rst_pad:21 2.069726
15 n23:11 rst_pad:6 2.069726
16 n23:13 data_e_pad:4 1.008774
17 n23:11 data_e_pad:19 2.77847
18 n23:9 data_e_pad:19 0.08028648

*RES
1 n23:4 U31:A 0.1
2 n23:5 n23:4 0.1
3 n23:6 n23:7 0.1
4 n23:8 n23:9 0.1
5 n23:10 i_control_state_reg_0_:QN 0.1
6 n23:11 n23:10 0.1
7 n23:12 U15:A1 0.1
8 n23:13 n23:12 0.1
9 n23:7 n23:5 0.06825001
10 n23:9 n23:11 0.09691501
11 n23:11 n23:13 2.692236
12 n23:6 n23:8 0.69797

*END

*D_NET n17 17.97275

*CONN
*I U29:Y O *L 0.0 *D NOR2X2 *C 328.89 250.985
*I i_control_state_reg_1_:D I *L 1.119 *C 340.85 354.305
*I i_sel:I I *L 77.0 *C 350.255 196.73
*N n17:4 *C 328.89 250.985
*N n17:5 *C 328.89 250.985
*N n17:6 *C 340.85 354.305
*N n17:7 *C 340.85 354.305
*N n17:8 *C 340.85 354.305
*N n17:9 *C 340.85 250.985
*N n17:10 *C 340.85 250.985
*N n17:11 *C 350.51 250.985
*N n17:12 *C 350.51 250.985
*N n17:13 *C 350.255 204.23
*N n17:14 *C 350.255 196.73
*N n17:15 *C 350.255 196.73
*N n17:16 *C 350.255 196.73
*N n17:17 *C 350.51 204.23
*N n17:18 *C 340.85 300.84

*CAP
1 U29:Y 0.0
2 i_control_state_reg_1_:D 0.0
3 i_sel:I 0.0
4 n17:4 0.05931429
5 n17:5 0.640036
6 n17:6 0.05525252
7 n17:7 0.1009462
8 n17:8 2.498741
9 n17:9 2.361334
10 n17:10 1.057695
11 n17:11 2.20822
12 n17:12 0.4769736
13 n17:13 0.745818
14 n17:14 0.0
15 n17:15 0.0
16 n17:16 0.7222413
17 n17:17 2.231796
18 n17:18 4.814382

*RES
1 n17:4 U29:Y 0.1
2 n17:5 n17:4 0.1
3 n17:6 i_control_state_reg_1_:D 0.1
4 n17:7 n17:6 0.1
5 n17:8 n17:7 0.1
6 n17:9 n17:10 0.1
7 n17:11 n17:12 0.1
8 n17:5 n17:10 1.101555
9 n17:10 n17:12 0.8922551
10 n17:18 n17:8 4.878511
11 i_sel:I n17:15 1e-07
12 n17:15 n17:14 1e-07
13 n17:14 n17:16 1e-07
14 n17:16 n17:13 0.6777681
15 n17:13 n17:17 0.023205
16 n17:17 n17:11 4.258801
17 n17:18 n17:9 4.55

*END

*D_NET rst_pad 38.393

*CONN
*I i_control_state_reg_2_:RN I *L 4.205 *C 318.31 247.705
*I i_control_state_reg_0_:RN I *L 3.87 *C 281.05 247.705
*I i_control_state_reg_1_:RN I *L 3.87 *C 334.87 353.895
*I i_rst:C O *L 0.0 *D PI *C 196.73 207.62
*N rst_pad:5 *C 281.05 247.705
*N rst_pad:6 *C 281.05 247.705
*N rst_pad:7 *C 334.87 353.895
*N rst_pad:8 *C 334.87 353.895
*N rst_pad:9 *C 324.75 353.895
*N rst_pad:10 *C 324.75 353.895
*N rst_pad:11 *C 324.75 248.525
*N rst_pad:12 *C 324.75 248.525
*N rst_pad:13 *C 323.83 248.525
*N rst_pad:14 *C 323.83 248.525
*N rst_pad:15 *C 323.83 248.525
*N rst_pad:16 *C 213.89 207.525
*N rst_pad:17 *C 213.89 207.525
*N rst_pad:18 *C 213.89 247.295
*N rst_pad:19 *C 213.89 247.295
*N rst_pad:20 *C 318.31 247.705
*N rst_pad:21 *C 318.31 247.705
*N rst_pad:22 *C 204.25 207.572
*N rst_pad:23 *C 196.73 207.62
*N rst_pad:24 *C 196.73 207.62
*N rst_pad:25 *C 196.73 207.62
*N rst_pad:26 *C 196.73 207.62
*N rst_pad:27 *C 281.05 247.295
*N rst_pad:28 *C 324.75 298.38
*N rst_pad:29 *C 324.75 348.38
*N rst_pad:30 *C 263.745 247.295

*CAP
1 i_control_state_reg_2_:RN 0.04140174
2 i_control_state_reg_0_:RN 0.0
3 i_control_state_reg_1_:RN 0.0
4 i_rst:C 0.0
5 rst_pad:5 0.0769969
6 rst_pad:6 1.027714
7 rst_pad:7 0.07158721
8 rst_pad:8 0.7016667
9 rst_pad:9 0.2950781
10 rst_pad:10 0.6300794
11 rst_pad:11 2.634249
12 rst_pad:12 0.09689965
13 rst_pad:13 0.09689965
14 rst_pad:14 0.06652661
15 rst_pad:15 0.1079284
16 rst_pad:16 1.996316
17 rst_pad:17 0.4853885
18 rst_pad:18 1.996316
19 rst_pad:19 2.025589
20 rst_pad:20 0.07536046
21 rst_pad:21 0.9977959
22 rst_pad:22 1.225428
23 rst_pad:23 0.0
24 rst_pad:24 0.0
25 rst_pad:25 0.0
26 rst_pad:26 0.7400393
27 rst_pad:27 0.5337917
28 rst_pad:28 5.095398
29 rst_pad:29 2.756227
30 rst_pad:30 2.531099
31 rst_pad:8 i_control_state\[1\]:12 0.2750326
32 rst_pad:10 i_control_state\[1\]:14 0.2750326
33 rst_pad:6 i_control_state\[1\]:25 0.6726779
34 rst_pad:6 i_control_state\[1\]:22 0.6726779
35 rst_pad:21 n14:13 0.2839798
36 rst_pad:21 n14:14 0.2839798
37 rst_pad:21 n23:13 2.069726
38 rst_pad:6 n23:11 2.069726
39 rst_pad:21 n6:5 0.4082777
40 rst_pad:27 data_e_pad:19 1.260971
41 rst_pad:30 data_e_pad:7 3.815148

*RES
1 rst_pad:5 i_control_state_reg_0_:RN 0.1
2 rst_pad:6 rst_pad:5 0.1
3 rst_pad:7 i_control_state_reg_1_:RN 0.1
4 rst_pad:8 rst_pad:7 0.1
5 rst_pad:9 rst_pad:10 0.1
6 rst_pad:11 rst_pad:12 0.1
7 rst_pad:13 rst_pad:14 0.1
8 rst_pad:14 rst_pad:15 0.1
9 rst_pad:16 rst_pad:17 0.1
10 rst_pad:18 rst_pad:19 0.1
11 rst_pad:20 i_control_state_reg_2_:RN 0.1
12 rst_pad:21 rst_pad:20 0.1
13 i_control_state_reg_2_:RN rst_pad:15 0.04221778
14 i_rst:C rst_pad:25 1e-07
15 rst_pad:25 rst_pad:24 1e-07
16 rst_pad:24 rst_pad:23 1e-07
17 rst_pad:23 rst_pad:26 1e-07
18 rst_pad:26 rst_pad:22 0.6793151
19 rst_pad:22 rst_pad:17 0.8813351
20 rst_pad:30 rst_pad:27 1.583855
21 rst_pad:27 rst_pad:6 0.02821
22 rst_pad:6 rst_pad:21 3.401854
23 rst_pad:13 rst_pad:12 0.11011
24 rst_pad:10 rst_pad:8 0.94731
25 rst_pad:16 rst_pad:18 3.645461
26 rst_pad:29 rst_pad:9 0.5150601
27 rst_pad:28 rst_pad:11 4.550001
28 rst_pad:29 rst_pad:28 4.550001
29 rst_pad:30 rst_pad:19 4.550001

*END

*D_NET clk_pad 27.58838

*CONN
*I i_control_state_reg_2_:CK I *L 1.369 *C 323.37 247.705
*I i_control_state_reg_0_:CK I *L 1.378 *C 276.45 247.705
*I i_control_state_reg_1_:CK I *L 1.378 *C 339.93 353.895
*I i_clk:C O *L 0.0 *D PI *C 196.73 242.62
*N clk_pad:5 *C 276.45 247.705
*N clk_pad:6 *C 276.45 247.705
*N clk_pad:7 *C 276.45 247.705
*N clk_pad:8 *C 276.45 247.705
*N clk_pad:9 *C 339.93 353.895
*N clk_pad:10 *C 339.93 353.895
*N clk_pad:11 *C 339.93 353.895
*N clk_pad:12 *C 339.93 353.895
*N clk_pad:13 *C 335.79 353.895
*N clk_pad:14 *C 335.79 353.895
*N clk_pad:15 *C 335.79 247.705
*N clk_pad:16 *C 335.79 247.705
*N clk_pad:17 *C 276.45 243.195
*N clk_pad:18 *C 276.45 243.195
*N clk_pad:19 *C 276.45 247.705
*N clk_pad:20 *C 323.37 247.705
*N clk_pad:21 *C 323.37 247.705
*N clk_pad:22 *C 323.37 247.705
*N clk_pad:23 *C 323.37 247.705
*N clk_pad:24 *C 204.25 242.62
*N clk_pad:25 *C 196.73 242.62
*N clk_pad:26 *C 196.73 242.62
*N clk_pad:27 *C 204.25 243.195
*N clk_pad:28 *C 335.79 297.56
*N clk_pad:29 *C 335.79 347.56
*N clk_pad:30 *C 254.35 243.195

*CAP
1 i_control_state_reg_2_:CK 0.0
2 i_control_state_reg_0_:CK 0.0
3 i_control_state_reg_1_:CK 0.0
4 i_clk:C 0.0
5 clk_pad:5 0.07438038
6 clk_pad:6 0.1630616
7 clk_pad:7 0.1546518
8 clk_pad:8 2.611629
9 clk_pad:9 0.07017014
10 clk_pad:10 0.1180552
11 clk_pad:11 0.09941878
12 clk_pad:12 0.2685162
13 clk_pad:13 0.2965357
14 clk_pad:14 0.2169825
15 clk_pad:15 2.317205
16 clk_pad:16 0.6746923
17 clk_pad:17 0.435787
18 clk_pad:18 1.087017
19 clk_pad:19 0.435787
20 clk_pad:20 0.07113267
21 clk_pad:21 0.1552069
22 clk_pad:22 0.1730566
23 clk_pad:23 3.309333
24 clk_pad:24 0.7580895
25 clk_pad:25 0.7168155
26 clk_pad:26 0.0
27 clk_pad:27 2.562198
28 clk_pad:28 4.615694
29 clk_pad:29 2.595025
30 clk_pad:30 3.60794

*RES
1 clk_pad:5 i_control_state_reg_0_:CK 0.1
2 clk_pad:6 clk_pad:5 0.1
3 clk_pad:7 clk_pad:6 0.1
4 clk_pad:8 clk_pad:7 0.1
5 clk_pad:9 i_control_state_reg_1_:CK 0.1
6 clk_pad:10 clk_pad:9 0.1
7 clk_pad:11 clk_pad:10 0.1
8 clk_pad:12 clk_pad:11 0.1
9 clk_pad:13 clk_pad:14 0.1
10 clk_pad:15 clk_pad:16 0.1
11 clk_pad:17 clk_pad:18 0.1
12 clk_pad:19 clk_pad:8 0.1
13 clk_pad:20 i_control_state_reg_2_:CK 0.1
14 clk_pad:21 clk_pad:20 0.1
15 clk_pad:22 clk_pad:21 0.1
16 clk_pad:23 clk_pad:22 0.1
17 i_clk:C clk_pad:26 1e-07
18 clk_pad:26 clk_pad:25 1e-07
19 clk_pad:25 clk_pad:24 0.6793151
20 clk_pad:24 clk_pad:27 0.052325
21 clk_pad:30 clk_pad:18 2.024296
22 clk_pad:8 clk_pad:23 4.282916
23 clk_pad:23 clk_pad:16 1.143415
24 clk_pad:14 clk_pad:12 0.4031301
25 clk_pad:17 clk_pad:19 0.4368001
26 clk_pad:29 clk_pad:13 0.5896801
27 clk_pad:28 clk_pad:15 4.550001
28 clk_pad:29 clk_pad:28 4.55
29 clk_pad:30 clk_pad:27 4.550001

*END

*D_NET n10 2.440259

*CONN
*I U22:A1 I *L 6.308 *C 320.15 254.265
*I U18:Y O *L 0.0 *D NAND2BX1 *C 315.55 262.875
*I U3:A I *L 3.966 *C 320.15 262.055
*N n10:4 *C 315.55 262.875
*N n10:5 *C 315.55 262.875
*N n10:6 *C 319.23 262.875
*N n10:7 *C 319.23 262.875
*N n10:8 *C 320.15 254.265
*N n10:9 *C 320.15 254.265
*N n10:10 *C 319.23 254.265
*N n10:11 *C 319.23 254.265
*N n10:12 *C 320.15 262.055
*N n10:13 *C 320.15 262.055
*N n10:14 *C 319.23 262.055
*N n10:15 *C 319.23 262.055

*CAP
1 U22:A1 0.0
2 U18:Y 0.0
3 U3:A 0.0
4 n10:4 0.06556698
5 n10:5 0.302953
6 n10:6 0.0605057
7 n10:7 0.237386
8 n10:8 0.07948796
9 n10:9 0.2202245
10 n10:10 0.4967551
11 n10:11 0.1407365
12 n10:12 0.0596128
13 n10:13 0.1396915
14 n10:14 0.5572608
15 n10:15 0.08007871

*RES
1 n10:4 U18:Y 0.1
2 n10:5 n10:4 0.1
3 n10:6 n10:7 0.1
4 n10:8 U22:A1 0.1
5 n10:9 n10:8 0.1
6 n10:10 n10:11 0.1
7 n10:12 U3:A 0.1
8 n10:13 n10:12 0.1
9 n10:14 n10:15 0.1
10 n10:5 n10:7 0.3612701
11 n10:11 n10:9 0.11011
12 n10:15 n10:13 0.11011
13 n10:10 n10:14 0.722085
14 n10:14 n10:6 0.08781502

*END

*D_NET halt_pad 15.95767

*CONN
*I U23:Y O *L 0.0 *D NOR3BX2 *C 309.11 249.755
*I i_halt:I I *L 77.0 *C 209.92 196.73
*N halt_pad:3 *C 210.21 249.755
*N halt_pad:4 *C 210.21 249.755
*N halt_pad:5 *C 309.11 249.755
*N halt_pad:6 *C 309.11 249.755
*N halt_pad:7 *C 209.92 204.23
*N halt_pad:8 *C 209.92 196.73
*N halt_pad:9 *C 209.92 196.73
*N halt_pad:10 *C 209.92 196.73
*N halt_pad:11 *C 210.21 204.23
*N halt_pad:12 *C 260.065 249.755

*CAP
1 U23:Y 0.08798424
2 i_halt:I 0.0
3 halt_pad:3 2.102682
4 halt_pad:4 2.371526
5 halt_pad:5 1.968821
6 halt_pad:6 0.08798424
7 halt_pad:7 0.752126
8 halt_pad:8 0.0
9 halt_pad:9 0.0
10 halt_pad:10 0.7245724
11 halt_pad:11 2.130236
12 halt_pad:12 4.340348
13 halt_pad:5 i_control_state\[0\]:6 0.6956929
14 halt_pad:12 i_control_state\[0\]:19 0.6956929

*RES
1 halt_pad:3 halt_pad:4 0.1
2 halt_pad:5 halt_pad:6 0.1
3 halt_pad:6 U23:Y 0.1
4 halt_pad:12 halt_pad:5 4.476291
5 i_halt:I halt_pad:9 1e-07
6 halt_pad:9 halt_pad:8 1e-07
7 halt_pad:8 halt_pad:10 1e-07
8 halt_pad:10 halt_pad:7 0.6777681
9 halt_pad:7 halt_pad:11 0.02639
10 halt_pad:11 halt_pad:3 4.146871
11 halt_pad:12 halt_pad:4 4.550001

*END

*D_NET n12 4.504775

*CONN
*I U23:AN I *L 3.01 *C 311.87 250.985
*I U20:C I *L 2.149 *C 311.41 257.545
*I U14:B I *L 1.722 *C 308.65 254.675
*I U13:Y O *L 0.0 *D NOR2XL *C 304.965 257.605
*N n12:5 *C 308.65 254.675
*N n12:6 *C 308.65 255.085
*N n12:7 *C 308.65 255.085
*N n12:8 *C 311.41 257.545
*N n12:9 *C 311.41 257.545
*N n12:10 *C 308.65 257.545
*N n12:11 *C 308.65 257.545
*N n12:12 *C 311.87 250.985
*N n12:13 *C 311.87 250.985
*N n12:14 *C 310.95 250.985
*N n12:15 *C 310.95 250.985
*N n12:16 *C 310.95 255.085
*N n12:17 *C 310.95 255.085
*N n12:18 *C 308.65 255.085
*N n12:19 *C 306.35 258.775
*N n12:20 *C 306.35 258.775
*N n12:21 *C 306.35 258.775
*N n12:22 *C 308.65 258.775
*N n12:23 *C 308.65 258.775

*CAP
1 U23:AN 0.0
2 U20:C 0.0
3 U14:B 0.0
4 U13:Y 0.1211441
5 n12:5 0.07530643
6 n12:6 0.1772203
7 n12:7 0.07530643
8 n12:8 0.07738024
9 n12:9 0.1781238
10 n12:10 0.1619209
11 n12:11 0.1007436
12 n12:12 0.08684326
13 n12:13 0.2964017
14 n12:14 0.07462048
15 n12:15 0.2095584
16 n12:16 0.07462048
17 n12:17 0.1772203
18 n12:18 0.1331497
19 n12:19 0.07658256
20 n12:20 0.1211441
21 n12:21 0.3244884
22 n12:22 0.0287712
23 n12:23 0.2479059
24 n12:9 opcode_pad\[0\]:25 0.238756
25 n12:11 opcode_pad\[0\]:25 0.238756
26 n12:16 n15:8 0.433324
27 n12:14 n15:8 0.2685468
28 n12:10 n3:6 0.2510461
29 n12:18 n3:5 0.07012149
30 n12:11 n3:8 0.08628533
31 n12:6 n3:5 0.0994877

*RES
1 n12:5 U14:B 0.1
2 n12:6 n12:7 0.1
3 n12:8 U20:C 0.1
4 n12:9 n12:8 0.1
5 n12:10 n12:11 0.1
6 n12:12 U23:AN 0.1
7 n12:13 n12:12 0.1
8 n12:14 n12:15 0.1
9 n12:16 n12:17 0.1
10 n12:18 n12:6 0.1
11 n12:19 n12:20 0.1
12 n12:21 n12:19 0.1
13 n12:22 n12:23 0.1
14 U13:Y n12:20 0.1589875
15 n12:5 n12:7 0.06370001
16 n12:21 n12:23 0.23569
17 n12:6 n12:17 0.23569
18 n12:11 n12:9 0.27755
19 n12:15 n12:13 0.11011
20 n12:18 n12:10 0.237055
21 n12:10 n12:22 0.125125
22 n12:14 n12:16 0.3994901

*END

*D_NET opcode_pad\[0\] 29.06604

*CONN
*I U23:B I *L 7.067 *C 309.57 250.575
*I U20:B I *L 2.153 *C 311.87 257.955
*I U27:B I *L 14.271 *C 312.33 250.165
*I U18:B I *L 3.03 *C 314.63 262.465
*I i_opcode_0:C O *L 0.0 *D PI *C 196.73 347.62
*N opcode_pad\[0\]:6 *C 311.87 257.955
*N opcode_pad\[0\]:7 *C 311.87 257.955
*N opcode_pad\[0\]:8 *C 312.33 257.955
*N opcode_pad\[0\]:9 *C 312.33 257.955
*N opcode_pad\[0\]:10 *C 312.33 250.165
*N opcode_pad\[0\]:11 *C 312.33 250.165
*N opcode_pad\[0\]:12 *C 309.57 250.575
*N opcode_pad\[0\]:13 *C 309.57 250.165
*N opcode_pad\[0\]:14 *C 309.57 250.165
*N opcode_pad\[0\]:15 *C 314.63 262.465
*N opcode_pad\[0\]:16 *C 314.63 262.465
*N opcode_pad\[0\]:17 *C 312.33 262.465
*N opcode_pad\[0\]:18 *C 312.33 262.465
*N opcode_pad\[0\]:19 *C 312.33 250.165
*N opcode_pad\[0\]:20 *C 211.13 347.745
*N opcode_pad\[0\]:21 *C 211.13 347.745
*N opcode_pad\[0\]:22 *C 211.13 257.955
*N opcode_pad\[0\]:23 *C 211.13 257.955
*N opcode_pad\[0\]:24 *C 312.33 257.135
*N opcode_pad\[0\]:25 *C 312.33 257.135
*N opcode_pad\[0\]:26 *C 204.25 347.682
*N opcode_pad\[0\]:27 *C 196.73 347.62
*N opcode_pad\[0\]:28 *C 196.73 347.62
*N opcode_pad\[0\]:29 *C 196.73 347.62
*N opcode_pad\[0\]:30 *C 196.73 347.62
*N opcode_pad\[0\]:31 *C 301.75 257.955
*N opcode_pad\[0\]:32 *C 301.75 257.135
*N opcode_pad\[0\]:33 *C 211.13 307.81
*N opcode_pad\[0\]:34 *C 260.985 257.955

*CAP
1 U23:B 0.0
2 U20:B 0.0
3 U27:B 0.0
4 U18:B 0.0
5 i_opcode_0:C 0.0
6 opcode_pad\[0\]:6 0.1064511
7 opcode_pad\[0\]:7 0.197877
8 opcode_pad\[0\]:8 0.3363521
9 opcode_pad\[0\]:9 0.09142595
10 opcode_pad\[0\]:10 0.08465399
11 opcode_pad\[0\]:11 0.4778028
12 opcode_pad\[0\]:12 0.0943395
13 opcode_pad\[0\]:13 0.3931488
14 opcode_pad\[0\]:14 0.0943395
15 opcode_pad\[0\]:15 0.07002545
16 opcode_pad\[0\]:16 0.2126737
17 opcode_pad\[0\]:17 0.3068093
18 opcode_pad\[0\]:18 0.1426482
19 opcode_pad\[0\]:19 0.1035639
20 opcode_pad\[0\]:20 1.883335
21 opcode_pad\[0\]:21 0.351135
22 opcode_pad\[0\]:22 3.909268
23 opcode_pad\[0\]:23 2.368972
24 opcode_pad\[0\]:24 0.1331068
25 opcode_pad\[0\]:25 0.4950222
26 opcode_pad\[0\]:26 1.101741
27 opcode_pad\[0\]:27 0.0
28 opcode_pad\[0\]:28 0.0
29 opcode_pad\[0\]:29 0.0
30 opcode_pad\[0\]:30 0.7506063
31 opcode_pad\[0\]:31 1.948261
32 opcode_pad\[0\]:32 0.5436072
33 opcode_pad\[0\]:33 5.792603
34 opcode_pad\[0\]:34 4.268647
35 opcode_pad\[0\]:17 n13:9 0.08725175
36 opcode_pad\[0\]:24 n13:26 0.1308156
37 opcode_pad\[0\]:8 n13:26 0.1195017
38 opcode_pad\[0\]:24 n13:24 0.4161156
39 opcode_pad\[0\]:24 n13:15 0.1264872
40 opcode_pad\[0\]:9 n13:29 0.03589179
41 opcode_pad\[0\]:25 n13:29 0.0412811
42 opcode_pad\[0\]:9 n13:23 0.01448842
43 opcode_pad\[0\]:25 n13:23 0.02173263
44 opcode_pad\[0\]:25 n13:28 0.0815485
45 opcode_pad\[0\]:25 n13:25 0.0402674
46 opcode_pad\[0\]:18 n13:10 0.07875489
47 opcode_pad\[0\]:25 n12:9 0.238756
48 opcode_pad\[0\]:25 n12:11 0.238756
49 opcode_pad\[0\]:17 n16:9 0.1237763
50 opcode_pad\[0\]:8 n16:9 0.1668762
51 opcode_pad\[0\]:24 n16:9 0.3602726
52 opcode_pad\[0\]:19 n16:8 0.3171726
53 opcode_pad\[0\]:16 n16:12 0.08394012
54 opcode_pad\[0\]:18 n16:13 0.08394012

*RES
1 opcode_pad\[0\]:6 U20:B 0.1
2 opcode_pad\[0\]:7 opcode_pad\[0\]:6 0.1
3 opcode_pad\[0\]:8 opcode_pad\[0\]:9 0.1
4 opcode_pad\[0\]:10 U27:B 0.1
5 opcode_pad\[0\]:11 opcode_pad\[0\]:10 0.1
6 opcode_pad\[0\]:12 U23:B 0.1
7 opcode_pad\[0\]:13 opcode_pad\[0\]:14 0.1
8 opcode_pad\[0\]:15 U18:B 0.1
9 opcode_pad\[0\]:16 opcode_pad\[0\]:15 0.1
10 opcode_pad\[0\]:17 opcode_pad\[0\]:18 0.1
11 opcode_pad\[0\]:19 opcode_pad\[0\]:11 0.1
12 opcode_pad\[0\]:20 opcode_pad\[0\]:21 0.1
13 opcode_pad\[0\]:22 opcode_pad\[0\]:23 0.1
14 opcode_pad\[0\]:24 opcode_pad\[0\]:25 0.1
15 opcode_pad\[0\]:14 opcode_pad\[0\]:12 0.06370001
16 i_opcode_0:C opcode_pad\[0\]:29 1e-07
17 opcode_pad\[0\]:29 opcode_pad\[0\]:28 1e-07
18 opcode_pad\[0\]:28 opcode_pad\[0\]:27 1e-07
19 opcode_pad\[0\]:27 opcode_pad\[0\]:30 1e-07
20 opcode_pad\[0\]:30 opcode_pad\[0\]:26 0.6793151
21 opcode_pad\[0\]:26 opcode_pad\[0\]:21 0.630175
22 opcode_pad\[0\]:34 opcode_pad\[0\]:31 3.718716
23 opcode_pad\[0\]:32 opcode_pad\[0\]:31 0.07462001
24 opcode_pad\[0\]:32 opcode_pad\[0\]:25 0.9668751
25 opcode_pad\[0\]:13 opcode_pad\[0\]:11 0.27755
26 opcode_pad\[0\]:7 opcode_pad\[0\]:9 0.06825
27 opcode_pad\[0\]:18 opcode_pad\[0\]:16 0.23569
28 opcode_pad\[0\]:33 opcode_pad\[0\]:20 3.647281
29 opcode_pad\[0\]:19 opcode_pad\[0\]:24 0.6474651
30 opcode_pad\[0\]:24 opcode_pad\[0\]:8 0.07462001
31 opcode_pad\[0\]:8 opcode_pad\[0\]:17 0.4236051
32 opcode_pad\[0\]:33 opcode_pad\[0\]:22 4.550001
33 opcode_pad\[0\]:34 opcode_pad\[0\]:23 4.55

*END

*D_NET n6 3.50086

*CONN
*I U16:C0 I *L 6.314 *C 323.83 239.915
*I U15:Y O *L 0.0 *D OAI21XL *C 313.205 246.85
*N n6:3 *C 315.55 247.295
*N n6:4 *C 315.55 247.295
*N n6:5 *C 315.55 247.295
*N n6:6 *C 322.45 247.295
*N n6:7 *C 322.45 247.295
*N n6:8 *C 322.45 240.735
*N n6:9 *C 322.45 240.735
*N n6:10 *C 323.83 240.735
*N n6:11 *C 323.83 240.735
*N n6:12 *C 323.83 239.915

*CAP
1 U16:C0 0.0
2 U15:Y 0.1817357
3 n6:3 0.07388095
4 n6:4 0.1817357
5 n6:5 0.4526617
6 n6:6 0.4376996
7 n6:7 0.3787808
8 n6:8 0.4376996
9 n6:9 0.0478919
10 n6:10 0.0478919
11 n6:11 0.1080455
12 n6:12 0.1080455
13 n6:5 i_control_state\[2\]:34 0.1701197
14 n6:5 i_control_state\[2\]:21 0.1701197
15 n6:10 n22:23 0.1481372
16 n6:9 n22:20 0.1481372
17 n6:5 rst_pad:21 0.4082777

*RES
1 n6:3 n6:4 0.1
2 n6:5 n6:3 0.1
3 n6:6 n6:7 0.1
4 n6:8 n6:9 0.1
5 n6:10 n6:11 0.1
6 n6:12 U16:C0 0.1
7 U15:Y n6:4 0.3441375
8 n6:12 n6:11 0.10101
9 n6:5 n6:7 0.65429
10 n6:9 n6:10 0.18928
11 n6:8 n6:6 0.62335

*END

*D_NET rd_pad 11.49728

*CONN
*I U16:Y O *L 0.0 *D OAI211X2 *C 325.21 240.325
*I i_rd:I I *L 77.0 *C 407.69 209.92
*N rd_pad:3 *C 387.31 209.985
*N rd_pad:4 *C 387.31 209.985
*N rd_pad:5 *C 387.31 239.095
*N rd_pad:6 *C 387.31 239.095
*N rd_pad:7 *C 325.21 240.325
*N rd_pad:8 *C 325.21 240.325
*N rd_pad:9 *C 330.73 240.325
*N rd_pad:10 *C 330.73 239.095
*N rd_pad:11 *C 387.31 209.985
*N rd_pad:12 *C 387.31 209.985
*N rd_pad:13 *C 387.31 209.985
*N rd_pad:14 *C 387.31 209.985
*N rd_pad:15 *C 380.63 239.095

*CAP
1 U16:Y 0.06007056
2 i_rd:I 1.053706
3 rd_pad:3 1.416042
4 rd_pad:4 0.0
5 rd_pad:5 1.416042
6 rd_pad:6 0.3653519
7 rd_pad:7 0.4460137
8 rd_pad:8 0.06007056
9 rd_pad:9 0.4953879
10 rd_pad:10 2.407457
11 rd_pad:11 0.0
12 rd_pad:12 0.0
13 rd_pad:13 0.0
14 rd_pad:14 1.053706
15 rd_pad:15 2.723435

*RES
1 rd_pad:3 rd_pad:4 0.1
2 rd_pad:5 rd_pad:6 0.1
3 rd_pad:7 rd_pad:8 0.1
4 rd_pad:8 U16:Y 0.1
5 rd_pad:7 rd_pad:9 0.524615
6 rd_pad:15 rd_pad:6 0.621075
7 rd_pad:10 rd_pad:9 0.09373002
8 rd_pad:4 rd_pad:12 1e-07
9 rd_pad:12 rd_pad:11 1e-07
10 rd_pad:11 rd_pad:13 1e-07
11 rd_pad:13 rd_pad:14 1e-07
12 rd_pad:14 i_rd:I 1.85367
13 rd_pad:3 rd_pad:5 2.6754
14 rd_pad:15 rd_pad:10 4.550001

*END

*D_NET data_e_pad 20.61177

*CONN
*I U25:Y O *L 0.0 *D NOR2X2 *C 309.11 247.295
*I i_data_e:I I *L 77.0 *C 245.0 196.73
*N data_e_pad:3 *C 309.11 247.295
*N data_e_pad:4 *C 309.11 246.885
*N data_e_pad:5 *C 309.11 246.885
*N data_e_pad:6 *C 245.63 246.885
*N data_e_pad:7 *C 245.63 246.885
*N data_e_pad:8 *C 245.0 197.685
*N data_e_pad:9 *C 245.0 197.685
*N data_e_pad:10 *C 245.63 197.685
*N data_e_pad:11 *C 245.63 197.685
*N data_e_pad:12 *C 245.0 196.73
*N data_e_pad:13 *C 245.0 196.73
*N data_e_pad:14 *C 245.0 196.73
*N data_e_pad:15 *C 245.0 196.73
*N data_e_pad:16 *C 245.0 196.73
*N data_e_pad:17 *C 245.0 204.23
*N data_e_pad:18 *C 245.63 204.23
*N data_e_pad:19 *C 295.485 246.885

*CAP
1 U25:Y 0.0
2 i_data_e:I 0.0
3 data_e_pad:3 0.08866049
4 data_e_pad:4 0.01424178
5 data_e_pad:5 0.08866049
6 data_e_pad:6 2.061759
7 data_e_pad:7 1.401715
8 data_e_pad:8 0.470999
9 data_e_pad:9 0.09273829
10 data_e_pad:10 0.09273829
11 data_e_pad:11 0.3432574
12 data_e_pad:12 0.0
13 data_e_pad:13 0.0
14 data_e_pad:14 0.0
15 data_e_pad:15 0.3432574
16 data_e_pad:16 0.0
17 data_e_pad:17 0.5080296
18 data_e_pad:18 2.09879
19 data_e_pad:19 1.415956
20 data_e_pad:4 n5:9 1.008774
21 data_e_pad:19 n5:13 1.638545
22 data_e_pad:4 n23:13 1.008774
23 data_e_pad:19 n23:11 2.77847
24 data_e_pad:19 n23:9 0.08028648
25 data_e_pad:19 rst_pad:27 1.260971
26 data_e_pad:7 rst_pad:30 3.815148

*RES
1 data_e_pad:3 U25:Y 0.1
2 data_e_pad:4 data_e_pad:5 0.1
3 data_e_pad:6 data_e_pad:7 0.1
4 data_e_pad:8 data_e_pad:9 0.1
5 data_e_pad:10 data_e_pad:11 0.1
6 i_data_e:I data_e_pad:14 1e-07
7 data_e_pad:14 data_e_pad:13 1e-07
8 data_e_pad:13 data_e_pad:12 1e-07
9 data_e_pad:12 data_e_pad:16 1e-07
10 data_e_pad:16 data_e_pad:15 1e-07
11 data_e_pad:15 data_e_pad:11 0.08626801
12 data_e_pad:5 data_e_pad:3 0.06370001
13 data_e_pad:9 data_e_pad:10 0.08372001
14 data_e_pad:19 data_e_pad:4 1.25307
15 data_e_pad:8 data_e_pad:17 0.6178901
16 data_e_pad:17 data_e_pad:18 0.05733002
17 data_e_pad:18 data_e_pad:6 3.885701
18 data_e_pad:19 data_e_pad:7 4.550001

*END

*D_NET n15 5.445127

*CONN
*I U25:A I *L 5.822 *C 310.03 247.295
*I U26:AN I *L 3.01 *C 316.01 258.365
*I U14:Y O *L 0.0 *D NOR2XL *C 309.105 255.435
*I U15:B0 I *L 1.8 *C 313.25 246.475
*N n15:5 *C 310.03 254.265
*N n15:6 *C 310.03 254.265
*N n15:7 *C 310.03 254.265
*N n15:8 *C 311.41 254.265
*N n15:9 *C 311.41 254.265
*N n15:10 *C 310.03 247.295
*N n15:11 *C 310.03 246.885
*N n15:12 *C 310.03 246.885
*N n15:13 *C 313.25 246.475
*N n15:14 *C 313.25 246.885
*N n15:15 *C 313.25 246.885
*N n15:16 *C 316.01 258.365
*N n15:17 *C 316.01 258.365
*N n15:18 *C 311.41 258.365
*N n15:19 *C 311.41 258.365
*N n15:20 *C 311.41 246.885
*N n15:21 *C 311.41 246.885

*CAP
1 U25:A 0.0
2 U26:AN 0.0
3 U14:Y 0.06741805
4 U15:B0 0.0
5 n15:5 0.0675284
6 n15:6 0.06741805
7 n15:7 0.2243741
8 n15:8 0.5313571
9 n15:9 0.1568457
10 n15:10 0.08887103
11 n15:11 0.1142004
12 n15:12 0.08887103
13 n15:13 0.08281471
14 n15:14 0.1857626
15 n15:15 0.08281471
16 n15:16 0.07996007
17 n15:17 0.3570603
18 n15:18 0.2587526
19 n15:19 0.2771003
20 n15:20 0.2726045
21 n15:21 0.2999631
22 n15:14 n5:9 0.04786091
23 n15:21 n5:9 0.1785414
24 n15:11 n5:9 0.1306805
25 n15:18 n13:26 0.1601823
26 n15:18 n13:24 0.07297196
27 n15:8 n13:15 0.2271672
28 n15:17 n13:27 0.3110674
29 n15:19 n13:27 0.3110674
30 n15:8 n12:16 0.433324
31 n15:8 n12:14 0.2685468

*RES
1 n15:5 n15:6 0.1
2 n15:7 n15:5 0.1
3 n15:8 n15:9 0.1
4 n15:10 U25:A 0.1
5 n15:11 n15:12 0.1
6 n15:13 U15:B0 0.1
7 n15:14 n15:15 0.1
8 n15:16 U26:AN 0.1
9 n15:17 n15:16 0.1
10 n15:18 n15:19 0.1
11 n15:20 n15:21 0.1
12 U14:Y n15:6 0.0664125
13 n15:12 n15:10 0.06370001
14 n15:13 n15:15 0.06370001
15 n15:11 n15:21 0.138775
16 n15:21 n15:14 0.180635
17 n15:7 n15:9 0.15197
18 n15:19 n15:17 0.4449901
19 n15:20 n15:8 0.684775
20 n15:8 n15:18 0.386295

*END

*D_NET inc_pc_pad 14.12424

*CONN
*I U22:Y O *L 0.0 *D OAI211X2 *C 322.91 254.265
*I i_inc_pc:I I *L 77.0 *C 385.34 196.73
*N inc_pc_pad:3 *C 384.55 253.855
*N inc_pc_pad:4 *C 384.55 253.855
*N inc_pc_pad:5 *C 322.91 254.265
*N inc_pc_pad:6 *C 322.91 254.265
*N inc_pc_pad:7 *C 328.43 254.265
*N inc_pc_pad:8 *C 328.43 253.855
*N inc_pc_pad:9 *C 384.55 204.23
*N inc_pc_pad:10 *C 385.34 204.23
*N inc_pc_pad:11 *C 385.34 196.73
*N inc_pc_pad:12 *C 385.34 196.73
*N inc_pc_pad:13 *C 385.34 196.73
*N inc_pc_pad:14 *C 378.53 253.855

*CAP
1 U22:Y 0.08106638
2 i_inc_pc:I 0.0
3 inc_pc_pad:3 2.380812
4 inc_pc_pad:4 0.2482767
5 inc_pc_pad:5 0.3502103
6 inc_pc_pad:6 0.08106638
7 inc_pc_pad:7 0.3837077
8 inc_pc_pad:8 1.458803
9 inc_pc_pad:9 2.447591
10 inc_pc_pad:10 0.8334528
11 inc_pc_pad:11 0.0
12 inc_pc_pad:12 0.0
13 inc_pc_pad:13 0.7666737
14 inc_pc_pad:14 1.673582
15 inc_pc_pad:4 ld_ir_pad:18 0.1183649
16 inc_pc_pad:14 ld_ir_pad:18 1.466334
17 inc_pc_pad:8 ld_ir_pad:5 1.413408
18 inc_pc_pad:8 ld_ir_pad:7 0.06543972
19 inc_pc_pad:7 ld_ir_pad:7 0.3554518

*RES
1 inc_pc_pad:3 inc_pc_pad:4 0.1
2 inc_pc_pad:5 inc_pc_pad:6 0.1
3 inc_pc_pad:6 U22:Y 0.1
4 inc_pc_pad:5 inc_pc_pad:7 0.524615
5 inc_pc_pad:8 inc_pc_pad:7 0.03731
6 inc_pc_pad:14 inc_pc_pad:4 0.5610151
7 inc_pc_pad:9 inc_pc_pad:10 0.09009001
8 inc_pc_pad:9 inc_pc_pad:3 4.519971
9 i_inc_pc:I inc_pc_pad:12 1e-07
10 inc_pc_pad:12 inc_pc_pad:11 1e-07
11 inc_pc_pad:11 inc_pc_pad:13 1e-07
12 inc_pc_pad:13 inc_pc_pad:10 0.6595681
13 inc_pc_pad:14 inc_pc_pad:8 4.550001

*END

*D_NET n9 2.767708

*CONN
*I U22:B0 I *L 6.03 *C 321.99 255.085
*I U20:Y O *L 0.0 *D NAND4XL *C 312.365 259.172
*N n9:3 *C 313.25 257.545
*N n9:4 *C 313.25 257.545
*N n9:5 *C 313.25 257.545
*N n9:6 *C 315.55 257.545
*N n9:7 *C 315.55 257.545
*N n9:8 *C 315.55 255.085
*N n9:9 *C 315.55 255.085
*N n9:10 *C 321.99 254.675
*N n9:11 *C 321.99 254.675
*N n9:12 *C 321.99 255.085
*N n9:13 *C 317.39 255.085
*N n9:14 *C 317.39 254.675

*CAP
1 U22:B0 0.0
2 U20:Y 0.05997787
3 n9:3 0.07081924
4 n9:4 0.05997787
5 n9:5 0.3226258
6 n9:6 0.1944268
7 n9:7 0.2518066
8 n9:8 0.1944268
9 n9:9 0.1435116
10 n9:10 0.5589645
11 n9:11 0.08698952
12 n9:12 0.08698952
13 n9:13 0.1608694
14 n9:14 0.5763223

*RES
1 n9:3 n9:4 0.1
2 n9:5 n9:3 0.1
3 n9:6 n9:7 0.1
4 n9:8 n9:9 0.1
5 n9:10 n9:11 0.1
6 n9:12 U22:B0 0.1
7 U20:Y n9:4 0.06339376
8 n9:11 n9:12 0.06370001
9 n9:5 n9:7 0.23569
10 n9:9 n9:13 0.189735
11 n9:14 n9:10 0.4408951
12 n9:14 n9:13 0.01911
13 n9:8 n9:6 0.25025

*END

*D_NET zero_pad 23.71918

*CONN
*I U20:D I *L 1.933 *C 310.95 258.775
*I i_zero:C O *L 0.0 *D PI *C 251.475 407.27
*N zero_pad:3 *C 310.95 258.775
*N zero_pad:4 *C 310.95 258.775
*N zero_pad:5 *C 310.95 258.775
*N zero_pad:6 *C 310.95 406.375
*N zero_pad:7 *C 310.95 406.375
*N zero_pad:8 *C 252.07 406.375
*N zero_pad:9 *C 252.07 406.375
*N zero_pad:10 *C 252.07 406.375
*N zero_pad:11 *C 252.07 406.375
*N zero_pad:12 *C 252.07 406.375
*N zero_pad:13 *C 252.07 406.375
*N zero_pad:14 *C 252.07 406.375
*N zero_pad:15 *C 310.95 308.63
*N zero_pad:16 *C 310.95 358.63
*N zero_pad:17 *C 301.925 406.375

*CAP
1 U20:D 0.0
2 i_zero:C 0.1066303
3 zero_pad:3 0.07324726
4 zero_pad:4 0.1425147
5 zero_pad:5 2.461671
6 zero_pad:6 2.319443
7 zero_pad:7 0.7728577
8 zero_pad:8 3.840896
9 zero_pad:9 0.0
10 zero_pad:10 0.0
11 zero_pad:11 0.0
12 zero_pad:12 0.0
13 zero_pad:13 0.0
14 zero_pad:14 0.1066303
15 zero_pad:15 4.67725
16 zero_pad:16 4.60429
17 zero_pad:17 4.613753

*RES
1 zero_pad:3 U20:D 0.1
2 zero_pad:4 zero_pad:3 0.1
3 zero_pad:5 zero_pad:4 0.1
4 zero_pad:6 zero_pad:7 0.1
5 zero_pad:8 zero_pad:9 0.1
6 zero_pad:9 zero_pad:11 1e-07
7 zero_pad:11 zero_pad:12 1e-07
8 zero_pad:12 zero_pad:10 1e-07
9 zero_pad:10 zero_pad:13 1e-07
10 zero_pad:13 zero_pad:14 1e-07
11 zero_pad:14 i_zero:C 0.08344701
12 zero_pad:17 zero_pad:7 0.8344701
13 zero_pad:16 zero_pad:6 4.357991
14 zero_pad:15 zero_pad:5 4.550001
15 zero_pad:16 zero_pad:15 4.550001
16 zero_pad:17 zero_pad:8 4.550002

*END

*D_NET wr_pad 10.63694

*CONN
*I U27:Y O *L 0.0 *D NOR3X4 *C 315.725 249.702
*I i_wr:I I *L 77.0 *C 407.69 244.92
*N wr_pad:3 *C 406.63 245.655
*N wr_pad:4 *C 406.63 245.655
*N wr_pad:5 *C 406.63 245.655
*N wr_pad:6 *C 321.07 245.655
*N wr_pad:7 *C 321.07 245.655
*N wr_pad:8 *C 321.07 250.165
*N wr_pad:9 *C 321.07 250.165
*N wr_pad:10 *C 317.85 250.165
*N wr_pad:11 *C 317.85 250.165
*N wr_pad:12 *C 317.85 250.165
*N wr_pad:13 *C 406.63 245.655
*N wr_pad:14 *C 406.63 245.655
*N wr_pad:15 *C 406.63 245.655
*N wr_pad:16 *C 406.63 245.655
*N wr_pad:17 *C 406.63 245.655
*N wr_pad:18 *C 406.63 245.655
*N wr_pad:19 *C 370.925 245.655

*CAP
1 U27:Y 0.0851559
2 i_wr:I 0.05929592
3 wr_pad:3 0.06420548
4 wr_pad:4 0.03462368
5 wr_pad:5 1.854204
6 wr_pad:6 0.3005374
7 wr_pad:7 2.461056
8 wr_pad:8 0.3005374
9 wr_pad:9 0.395381
10 wr_pad:10 0.395381
11 wr_pad:11 0.08776134
12 wr_pad:12 0.1729172
13 wr_pad:13 0.0
14 wr_pad:14 0.03462368
15 wr_pad:15 0.0
16 wr_pad:16 0.0
17 wr_pad:17 0.0
18 wr_pad:18 0.05929592
19 wr_pad:19 4.251055
20 wr_pad:7 n18:4 0.04045544
21 wr_pad:7 n18:5 0.04045544

*RES
1 wr_pad:3 wr_pad:4 0.1
2 wr_pad:5 wr_pad:3 0.1
3 wr_pad:6 wr_pad:7 0.1
4 wr_pad:8 wr_pad:9 0.1
5 wr_pad:10 wr_pad:11 0.1
6 wr_pad:11 wr_pad:12 0.1
7 U27:Y wr_pad:12 0.06842501
8 wr_pad:4 wr_pad:14 1e-07
9 wr_pad:14 wr_pad:15 1e-07
10 wr_pad:15 wr_pad:13 1e-07
11 wr_pad:13 wr_pad:17 1e-07
12 wr_pad:17 wr_pad:16 1e-07
13 wr_pad:16 wr_pad:18 1e-07
14 wr_pad:18 i_wr:I 0.1539563
15 wr_pad:10 wr_pad:9 0.31941
16 wr_pad:19 wr_pad:5 3.262351
17 wr_pad:6 wr_pad:8 0.4368001
18 wr_pad:19 wr_pad:7 4.550002

*END

*D_NET n16 3.769085

*CONN
*I U27:C I *L 13.949 *C 312.79 250.985
*I U17:Y O *L 0.0 *D NAND3XL *C 309.11 261.645
*I U18:AN I *L 1.509 *C 314.17 262.055
*N n16:4 *C 309.11 261.645
*N n16:5 *C 309.11 261.645
*N n16:6 *C 312.79 250.985
*N n16:7 *C 312.79 250.985
*N n16:8 *C 312.79 250.985
*N n16:9 *C 312.79 261.645
*N n16:10 *C 312.79 261.645
*N n16:11 *C 314.17 262.055
*N n16:12 *C 314.17 262.055
*N n16:13 *C 312.79 262.055

*CAP
1 U27:C 0.0
2 U17:Y 0.0
3 U18:AN 0.0
4 n16:4 0.07434952
5 n16:5 0.4392502
6 n16:6 0.08131479
7 n16:7 0.2123753
8 n16:8 0.6344479
9 n16:9 0.5033874
10 n16:10 0.3987256
11 n16:11 0.06948653
12 n16:12 0.1277155
13 n16:13 0.09205399
14 n16:9 opcode_pad\[0\]:17 0.1237763
15 n16:9 opcode_pad\[0\]:8 0.1668762
16 n16:9 opcode_pad\[0\]:24 0.3602726
17 n16:8 opcode_pad\[0\]:19 0.3171726
18 n16:12 opcode_pad\[0\]:16 0.08394012
19 n16:13 opcode_pad\[0\]:18 0.08394012

*RES
1 n16:4 U17:Y 0.1
2 n16:5 n16:4 0.1
3 n16:6 U27:C 0.1
4 n16:7 n16:6 0.1
5 n16:8 n16:7 0.1
6 n16:9 n16:10 0.1
7 n16:11 U18:AN 0.1
8 n16:12 n16:11 0.1
9 n16:5 n16:10 0.345982
10 n16:10 n16:13 0.04641001
11 n16:13 n16:12 0.129675
12 n16:8 n16:9 0.9964501

*END

*D_NET opcode_pad\[2\] 25.79496

*CONN
*I U17:A I *L 2.021 *C 309.57 262.055
*I U13:A I *L 1.902 *C 304.97 258.365
*I U12:A I *L 1.335 *C 306.845 257.952
*I i_opcode_2:C O *L 0.0 *D PI *C 207.62 407.27
*N opcode_pad\[2\]:5 *C 304.97 258.365
*N opcode_pad\[2\]:6 *C 304.97 257.955
*N opcode_pad\[2\]:7 *C 304.97 257.955
*N opcode_pad\[2\]:8 *C 305.89 257.955
*N opcode_pad\[2\]:9 *C 305.89 257.955
*N opcode_pad\[2\]:10 *C 305.89 257.955
*N opcode_pad\[2\]:11 *C 208.37 383.415
*N opcode_pad\[2\]:12 *C 208.37 383.415
*N opcode_pad\[2\]:13 *C 304.97 383.415
*N opcode_pad\[2\]:14 *C 304.97 383.415
*N opcode_pad\[2\]:15 *C 304.97 257.955
*N opcode_pad\[2\]:16 *C 309.57 262.055
*N opcode_pad\[2\]:17 *C 309.57 262.465
*N opcode_pad\[2\]:18 *C 309.57 262.465
*N opcode_pad\[2\]:19 *C 304.97 262.465
*N opcode_pad\[2\]:20 *C 304.97 262.465
*N opcode_pad\[2\]:21 *C 207.62 399.83
*N opcode_pad\[2\]:22 *C 208.37 399.83
*N opcode_pad\[2\]:23 *C 207.62 399.83
*N opcode_pad\[2\]:24 *C 207.62 399.83
*N opcode_pad\[2\]:25 *C 207.62 399.83
*N opcode_pad\[2\]:26 *C 304.97 312.465
*N opcode_pad\[2\]:27 *C 304.97 362.465
*N opcode_pad\[2\]:28 *C 258.225 383.415

*CAP
1 U17:A 0.0
2 U13:A 0.0
3 U12:A 0.1128929
4 i_opcode_2:C 0.514218
5 opcode_pad\[2\]:5 0.07905436
6 opcode_pad\[2\]:6 0.07644575
7 opcode_pad\[2\]:7 0.07905436
8 opcode_pad\[2\]:8 0.07413577
9 opcode_pad\[2\]:9 0.1128929
10 opcode_pad\[2\]:10 0.1505815
11 opcode_pad\[2\]:11 0.754879
12 opcode_pad\[2\]:12 2.368386
13 opcode_pad\[2\]:13 0.9817933
14 opcode_pad\[2\]:14 2.224927
15 opcode_pad\[2\]:15 0.1991987
16 opcode_pad\[2\]:16 0.08013618
17 opcode_pad\[2\]:17 0.199874
18 opcode_pad\[2\]:18 0.08013618
19 opcode_pad\[2\]:19 2.47607
20 opcode_pad\[2\]:20 0.199874
21 opcode_pad\[2\]:21 0.05713669
22 opcode_pad\[2\]:22 0.8120157
23 opcode_pad\[2\]:23 0.0
24 opcode_pad\[2\]:24 0.0
25 opcode_pad\[2\]:25 0.514218
26 opcode_pad\[2\]:26 4.567772
27 opcode_pad\[2\]:27 3.272694
28 opcode_pad\[2\]:28 4.593313
29 opcode_pad\[2\]:19 opcode_pad\[1\]:10 0.2644312
30 opcode_pad\[2\]:15 opcode_pad\[1\]:9 0.1638148
31 opcode_pad\[2\]:17 opcode_pad\[1\]:13 0.1914409
32 opcode_pad\[2\]:20 opcode_pad\[1\]:11 0.441532
33 opcode_pad\[2\]:10 opcode_pad\[1\]:8 0.07602075
34 opcode_pad\[2\]:6 opcode_pad\[1\]:6 0.07602075

*RES
1 opcode_pad\[2\]:5 U13:A 0.1
2 opcode_pad\[2\]:6 opcode_pad\[2\]:7 0.1
3 opcode_pad\[2\]:8 opcode_pad\[2\]:9 0.1
4 opcode_pad\[2\]:10 opcode_pad\[2\]:8 0.1
5 opcode_pad\[2\]:11 opcode_pad\[2\]:12 0.1
6 opcode_pad\[2\]:13 opcode_pad\[2\]:14 0.1
7 opcode_pad\[2\]:15 opcode_pad\[2\]:6 0.1
8 opcode_pad\[2\]:16 U17:A 0.1
9 opcode_pad\[2\]:17 opcode_pad\[2\]:18 0.1
10 opcode_pad\[2\]:19 opcode_pad\[2\]:20 0.1
11 opcode_pad\[2\]:9 U12:A 0.1428875
12 opcode_pad\[2\]:7 opcode_pad\[2\]:5 0.06370001
13 opcode_pad\[2\]:16 opcode_pad\[2\]:18 0.06370001
14 opcode_pad\[2\]:28 opcode_pad\[2\]:14 4.266991
15 opcode_pad\[2\]:6 opcode_pad\[2\]:10 0.11011
16 opcode_pad\[2\]:20 opcode_pad\[2\]:17 0.4449901
17 opcode_pad\[2\]:21 opcode_pad\[2\]:22 0.08645002
18 opcode_pad\[2\]:21 opcode_pad\[2\]:24 1e-07
19 opcode_pad\[2\]:24 opcode_pad\[2\]:23 1e-07
20 opcode_pad\[2\]:23 opcode_pad\[2\]:25 1e-07
21 opcode_pad\[2\]:25 i_opcode_2:C 0.6567471
22 opcode_pad\[2\]:11 opcode_pad\[2\]:22 1.49786
23 opcode_pad\[2\]:15 opcode_pad\[2\]:19 0.4236051
24 opcode_pad\[2\]:27 opcode_pad\[2\]:13 1.919645
25 opcode_pad\[2\]:26 opcode_pad\[2\]:19 4.55
26 opcode_pad\[2\]:27 opcode_pad\[2\]:26 4.550001
27 opcode_pad\[2\]:28 opcode_pad\[2\]:12 4.550001

*END

*D_NET opcode_pad\[1\] 33.72888

*CONN
*I U17:B I *L 2.012 *C 310.03 262.055
*I U13:B I *L 1.722 *C 304.51 258.365
*I U12:B I *L 1.405 *C 307.27 258.365
*I i_opcode_1:C O *L 0.0 *D PI *C 196.73 382.62
*N opcode_pad\[1\]:5 *C 304.51 258.365
*N opcode_pad\[1\]:6 *C 304.51 258.365
*N opcode_pad\[1\]:7 *C 307.27 258.365
*N opcode_pad\[1\]:8 *C 307.27 258.365
*N opcode_pad\[1\]:9 *C 304.51 258.365
*N opcode_pad\[1\]:10 *C 304.51 262.055
*N opcode_pad\[1\]:11 *C 304.51 262.055
*N opcode_pad\[1\]:12 *C 310.03 262.055
*N opcode_pad\[1\]:13 *C 310.03 262.055
*N opcode_pad\[1\]:14 *C 199.17 262.055
*N opcode_pad\[1\]:15 *C 199.17 262.055
*N opcode_pad\[1\]:16 *C 199.17 381.775
*N opcode_pad\[1\]:17 *C 196.73 382.62
*N opcode_pad\[1\]:18 *C 196.73 382.62
*N opcode_pad\[1\]:19 *C 196.73 382.62
*N opcode_pad\[1\]:20 *C 199.17 311.91
*N opcode_pad\[1\]:21 *C 199.17 361.91
*N opcode_pad\[1\]:22 *C 249.025 262.055
*N opcode_pad\[1\]:23 *C 299.025 262.055

*CAP
1 U17:B 0.0
2 U13:B 0.0
3 U12:B 0.0
4 i_opcode_1:C 0.0
5 opcode_pad\[1\]:5 0.07781216
6 opcode_pad\[1\]:6 0.3218942
7 opcode_pad\[1\]:7 0.0729484
8 opcode_pad\[1\]:8 0.3170304
9 opcode_pad\[1\]:9 0.1482144
10 opcode_pad\[1\]:10 0.1482144
11 opcode_pad\[1\]:11 0.559199
12 opcode_pad\[1\]:12 0.07367531
13 opcode_pad\[1\]:13 0.4805312
14 opcode_pad\[1\]:14 4.326807
15 opcode_pad\[1\]:15 2.429494
16 opcode_pad\[1\]:16 1.965918
17 opcode_pad\[1\]:17 0.0
18 opcode_pad\[1\]:18 0.0
19 opcode_pad\[1\]:19 0.4652556
20 opcode_pad\[1\]:20 8.345321
21 opcode_pad\[1\]:21 5.519177
22 opcode_pad\[1\]:22 4.770637
23 opcode_pad\[1\]:23 2.493485
24 opcode_pad\[1\]:10 opcode_pad\[2\]:19 0.2644312
25 opcode_pad\[1\]:9 opcode_pad\[2\]:15 0.1638148
26 opcode_pad\[1\]:13 opcode_pad\[2\]:17 0.1914409
27 opcode_pad\[1\]:11 opcode_pad\[2\]:20 0.441532
28 opcode_pad\[1\]:8 opcode_pad\[2\]:10 0.07602075
29 opcode_pad\[1\]:6 opcode_pad\[2\]:6 0.07602075

*RES
1 opcode_pad\[1\]:5 U13:B 0.1
2 opcode_pad\[1\]:6 opcode_pad\[1\]:5 0.1
3 opcode_pad\[1\]:7 U12:B 0.1
4 opcode_pad\[1\]:8 opcode_pad\[1\]:7 0.1
5 opcode_pad\[1\]:9 opcode_pad\[1\]:6 0.1
6 opcode_pad\[1\]:10 opcode_pad\[1\]:11 0.1
7 opcode_pad\[1\]:12 U17:B 0.1
8 opcode_pad\[1\]:13 opcode_pad\[1\]:12 0.1
9 opcode_pad\[1\]:14 opcode_pad\[1\]:15 0.1
10 opcode_pad\[1\]:23 opcode_pad\[1\]:11 0.499135
11 opcode_pad\[1\]:11 opcode_pad\[1\]:13 0.5155151
12 opcode_pad\[1\]:6 opcode_pad\[1\]:8 0.27755
13 i_opcode_1:C opcode_pad\[1\]:18 1e-07
14 opcode_pad\[1\]:18 opcode_pad\[1\]:17 1e-07
15 opcode_pad\[1\]:17 opcode_pad\[1\]:19 1e-07
16 opcode_pad\[1\]:19 opcode_pad\[1\]:16 0.217035
17 opcode_pad\[1\]:21 opcode_pad\[1\]:16 1.798615
18 opcode_pad\[1\]:9 opcode_pad\[1\]:10 0.36218
19 opcode_pad\[1\]:20 opcode_pad\[1\]:14 4.550002
20 opcode_pad\[1\]:21 opcode_pad\[1\]:20 4.55
21 opcode_pad\[1\]:22 opcode_pad\[1\]:15 4.550001
22 opcode_pad\[1\]:23 opcode_pad\[1\]:22 4.550001

*END

*D_NET ld_ac_pad 24.33745

*CONN
*I U26:Y O *L 0.0 *D NOR3BX2 *C 317.85 259.595
*I i_ld_ac:I I *L 77.0 *C 407.69 384.92
*N ld_ac_pad:3 *C 398.35 385.055
*N ld_ac_pad:4 *C 398.35 385.055
*N ld_ac_pad:5 *C 398.35 259.595
*N ld_ac_pad:6 *C 398.35 259.595
*N ld_ac_pad:7 *C 317.85 259.595
*N ld_ac_pad:8 *C 317.85 259.595
*N ld_ac_pad:9 *C 400.17 384.987
*N ld_ac_pad:10 *C 400.17 384.987
*N ld_ac_pad:11 *C 400.17 384.987
*N ld_ac_pad:12 *C 400.17 384.987
*N ld_ac_pad:13 *C 400.17 384.987
*N ld_ac_pad:14 *C 398.35 309.45
*N ld_ac_pad:15 *C 398.35 359.45
*N ld_ac_pad:16 *C 367.705 259.595

*CAP
1 U26:Y 0.0835769
2 i_ld_ac:I 0.4493552
3 ld_ac_pad:3 1.169841
4 ld_ac_pad:4 0.1120991
5 ld_ac_pad:5 2.491299
6 ld_ac_pad:6 1.48442
7 ld_ac_pad:7 2.645451
8 ld_ac_pad:8 0.0835769
9 ld_ac_pad:9 0.1120991
10 ld_ac_pad:10 0.0
11 ld_ac_pad:11 0.0
12 ld_ac_pad:12 0.0
13 ld_ac_pad:13 0.4493552
14 ld_ac_pad:14 6.223983
15 ld_ac_pad:15 4.902525
16 ld_ac_pad:16 4.129871

*RES
1 ld_ac_pad:3 ld_ac_pad:4 0.1
2 ld_ac_pad:5 ld_ac_pad:6 0.1
3 ld_ac_pad:7 ld_ac_pad:8 0.1
4 ld_ac_pad:8 U26:Y 0.1
5 ld_ac_pad:16 ld_ac_pad:6 2.80189
6 ld_ac_pad:4 ld_ac_pad:9 0.187915
7 ld_ac_pad:9 ld_ac_pad:11 1e-07
8 ld_ac_pad:11 ld_ac_pad:10 1e-07
9 ld_ac_pad:10 ld_ac_pad:12 1e-07
10 ld_ac_pad:12 ld_ac_pad:13 1e-07
11 ld_ac_pad:13 i_ld_ac:I 0.6611151
12 ld_ac_pad:15 ld_ac_pad:3 2.343251
13 ld_ac_pad:14 ld_ac_pad:5 4.55
14 ld_ac_pad:15 ld_ac_pad:14 4.550001
15 ld_ac_pad:16 ld_ac_pad:7 4.55

*END

*D_NET n3 1.331918

*CONN
*I U14:A I *L 1.902 *C 309.11 254.675
*I U12:Y O *L 0.0 *D AND2XL *C 308.19 257.955
*N n3:3 *C 309.11 254.675
*N n3:4 *C 309.11 254.675
*N n3:5 *C 309.11 254.675
*N n3:6 *C 309.11 257.955
*N n3:7 *C 309.11 257.955
*N n3:8 *C 309.11 257.955
*N n3:9 *C 308.19 257.955

*CAP
1 U14:A 0.0
2 U12:Y 0.0
3 n3:3 0.07335494
4 n3:4 0.127927
5 n3:5 0.1924408
6 n3:6 0.1378688
7 n3:7 0.05720499
8 n3:8 0.1466927
9 n3:9 0.08948769
10 n3:6 n12:10 0.2510461
11 n3:5 n12:18 0.07012149
12 n3:8 n12:11 0.08628533
13 n3:5 n12:6 0.0994877

*RES
1 n3:3 U14:A 0.1
2 n3:4 n3:3 0.1
3 n3:5 n3:4 0.1
4 n3:6 n3:7 0.1
5 n3:7 n3:8 0.1
6 n3:9 U12:Y 0.1
7 n3:9 n3:8 0.10192
8 n3:5 n3:6 0.32487

*END

*D_NET n4 25.46957

*CONN
*I i_ld_pc:I I *L 77.0 *C 394.5 407.27
*I U3:Y O *L 0.0 *D CLKINVX2 *C 320.84 262.735
*N n4:3 *C 394.67 406.375
*N n4:4 *C 394.67 406.375
*N n4:5 *C 394.5 406.375
*N n4:6 *C 393.75 262.465
*N n4:7 *C 393.75 262.465
*N n4:8 *C 321.07 262.465
*N n4:9 *C 321.07 262.465
*N n4:10 *C 321.07 262.465
*N n4:11 *C 394.67 406.375
*N n4:12 *C 394.67 406.375
*N n4:13 *C 394.67 406.375
*N n4:14 *C 394.67 406.375
*N n4:15 *C 394.67 406.375
*N n4:16 *C 393.75 399.83
*N n4:17 *C 394.5 399.83
*N n4:18 *C 393.75 312.32
*N n4:19 *C 393.75 362.32
*N n4:20 *C 370.925 262.465

*CAP
1 i_ld_pc:I 0.0913934
2 U3:Y 0.0299136
3 n4:3 0.05534417
4 n4:4 0.0
5 n4:5 0.4801664
6 n4:6 1.940008
7 n4:7 1.115085
8 n4:8 2.461995
9 n4:9 0.05961281
10 n4:10 0.08952641
11 n4:11 0.0
12 n4:12 0.0
13 n4:13 0.0
14 n4:14 0.0
15 n4:15 0.0913934
16 n4:16 1.75978
17 n4:17 0.4689064
18 n4:18 5.088385
19 n4:19 4.864073
20 n4:20 3.577079
21 n4:6 ld_ir_pad:10 0.9795991
22 n4:19 ld_ir_pad:8 0.5535368
23 n4:18 ld_ir_pad:17 1.763771

*RES
1 n4:3 n4:4 0.1
2 n4:5 n4:3 0.1
3 n4:6 n4:7 0.1
4 n4:8 n4:9 0.1
5 U3:Y n4:10 0.02331724
6 n4:9 n4:10 0.1
7 n4:4 n4:12 1e-07
8 n4:12 n4:13 1e-07
9 n4:13 n4:11 1e-07
10 n4:11 n4:14 1e-07
11 n4:14 n4:15 1e-07
12 n4:15 i_ld_pc:I 0.08344701
13 n4:20 n4:7 2.09027
14 n4:19 n4:16 3.422511
15 n4:16 n4:17 0.06825001
16 n4:17 n4:5 0.5996901
17 n4:18 n4:6 4.55
18 n4:19 n4:18 4.550001
19 n4:20 n4:8 4.550002

*END

*D_NET sel 76.16365

*CONN
*P sel O *C 232.19 603.8
*I i_sel:PAD O *L 0.0 *D PO8 *C 354.835 -5.449
*N sel:3 *C 232.19 -5.449

*CAP
1 sel 31.33304
2 i_sel:PAD 6.748784
3 sel:3 38.08183

*RES
1 sel:3 sel 58.48375
2 i_sel:PAD sel:3 11.80873

*END

*D_NET data_e 65.65291

*CONN
*I i_data_e:PAD O *L 0.0 *D PO8 *C 249.58 -5.449
*P data_e O *C 276.35 603.8
*N data_e:3 *C 249.58 603.8

*CAP
1 i_data_e:PAD 31.33304
2 data_e 1.493414
3 data_e:3 32.82645

*RES
1 data_e:3 data_e 2.827874
2 i_data_e:PAD data_e:3 58.30375

*END

*D_NET halt 74.52963

*CONN
*I i_halt:PAD O *L 0.0 *D PO8 *C 214.5 -5.449
*P halt O *C 321.89 603.8
*N halt:3 *C 214.5 603.8

*CAP
1 i_halt:PAD 31.33304
2 halt 5.931777
3 halt:3 37.26482

*RES
1 halt:3 halt 10.53112
2 i_halt:PAD halt:3 58.30375

*END

*D_NET inc_pc 68.78456

*CONN
*P inc_pc O *C 364.67 603.8
*I i_inc_pc:PAD O *L 0.0 *D PO8 *C 389.92 -5.449
*N inc_pc:3 *C 364.67 -5.449

*CAP
1 inc_pc 32.97321
2 i_inc_pc:PAD 1.419067
3 inc_pc:3 34.39228

*RES
1 inc_pc:3 inc_pc 58.48375
2 i_inc_pc:PAD inc_pc:3 2.502638

*END

*D_NET ld_pc 14.28293

*CONN
*P ld_pc O *C 284.17 603.8
*I i_ld_pc:PAD O *L 0.0 *D PO8 *C 389.92 609.449
*N ld_pc:3 *C 284.17 609.449

*CAP
1 ld_pc 0.3684904
2 i_ld_pc:PAD 6.772975
3 ld_pc:3 7.141466

*RES
1 ld_pc:3 ld_pc 0.8097619
2 i_ld_pc:PAD ld_pc:3 10.19441

*END

*D_NET ld_ac 65.53172

*CONN
*P ld_ac O *C 320.05 603.8
*I i_ld_ac:PAD O *L 0.0 *D PO8 *C 609.869 389.5
*N ld_ac:3 *C 320.05 389.5

*CAP
1 ld_ac 16.36336
2 i_ld_ac:PAD 16.40249
3 ld_ac:3 32.76586

*RES
1 ld_ac:3 ld_ac 20.74637
2 i_ld_ac:PAD ld_ac:3 27.7822

*END

*D_NET ld_ir 71.38548

*CONN
*P ld_ir O *C 284.17 603.8
*I i_ld_ir:PAD O *L 0.0 *D PO8 *C 609.869 354.5
*N ld_ir:3 *C 284.17 354.5

*CAP
1 ld_ir 14.83268
2 i_ld_ir:PAD 20.86006
3 ld_ir:3 35.69274

*RES
1 ld_ir:3 ld_ir 24.09061
2 i_ld_ir:PAD ld_ir:3 31.21054

*END

*D_NET wr 80.08315

*CONN
*P wr O *C 284.17 603.8
*I i_wr:PAD O *L 0.0 *D PO8 *C 609.869 249.5
*N wr:3 *C 284.17 249.5

*CAP
1 wr 19.18151
2 i_wr:PAD 20.86006
3 wr:3 40.04157

*RES
1 wr:3 wr 34.12336
2 i_wr:PAD wr:3 31.21054

*END

*D_NET rd 74.94366

*CONN
*P rd O *C 320.05 603.8
*I i_rd:PAD O *L 0.0 *D PO8 *C 609.869 214.5
*N rd:3 *C 320.05 214.5

*CAP
1 rd 21.06934
2 i_rd:PAD 16.40249
3 rd:3 37.47183

*RES
1 rd:3 rd 37.46761
2 i_rd:PAD rd:3 27.7822

*END

*D_NET zero 9.010857

*CONN
*I i_zero:PAD I *L 6710.0 *C 258.355 609.449
*P zero I *C 320.05 603.8
*N zero:3 *C 258.355 603.8

*CAP
1 i_zero:PAD 0.4313422
2 zero 4.074087
3 zero:3 4.505428

*RES
1 zero:3 i_zero:PAD 0.8097619
2 zero zero:3 5.984957

*END

*D_NET clk 79.4584

*CONN
*I i_clk:PAD I *L 6710.0 *C -5.449 249.5
*P clk I *C 320.97 603.8
*N clk:3 *C -5.449 603.8

*CAP
1 i_clk:PAD 18.63361
2 clk 21.09559
3 clk:3 39.7292

*RES
1 clk:3 i_clk:PAD 34.12336
2 clk clk:3 31.27934

*END

*D_NET rst_ 77.68859

*CONN
*I i_rst:PAD I *L 6710.0 *C -5.449 214.5
*P rst_ I *C 283.25 603.8
*N rst_:3 *C -5.449 603.8

*CAP
1 i_rst:PAD 20.41492
2 rst_ 18.42938
3 rst_:3 38.8443

*RES
1 rst_:3 i_rst:PAD 37.46761
2 rst_ rst_:3 27.67519

*END

*D_NET opcode[2] 14.45411

*CONN
*I i_opcode_2:PAD I *L 6710.0 *C 214.5 609.449
*P opcode[2] I *C 320.13 603.56
*N opcode[2]:3 *C 214.5 603.56

*CAP
1 i_opcode_2:PAD 0.4002719
2 opcode[2] 6.826785
3 opcode[2]:3 7.227056

*RES
1 opcode[2]:3 i_opcode_2:PAD 0.832694
2 opcode[2] opcode[2]:3 10.18295

*END

*D_NET opcode[1] 69.59851

*CONN
*I i_opcode_1:PAD I *L 6710.0 *C -5.449 389.5
*P opcode[1] I *C 283.65 603.56
*N opcode[1]:3 *C -5.449 603.56

*CAP
1 i_opcode_1:PAD 16.34504
2 opcode[1] 18.45421
3 opcode[1]:3 34.79926

*RES
1 opcode[1]:3 i_opcode_1:PAD 20.72343
2 opcode[1] opcode[1]:3 27.71341

*END

*D_NET opcode[0] 65.57758

*CONN
*I i_opcode_0:PAD I *L 6710.0 *C -5.449 354.5
*P opcode[0] I *C 283.25 603.8
*N opcode[0]:3 *C -5.449 603.8

*CAP
1 i_opcode_0:PAD 14.35941
2 opcode[0] 18.42938
3 opcode[0]:3 32.78879

*RES
1 opcode[0]:3 i_opcode_0:PAD 24.09061
2 opcode[0] opcode[0]:3 27.67519

*END
